%chk=IsoP_rdkit_03_189_gaussian.chk
%nproc=6
%mem=4000Mb
#p opt=loose m062x/6-31g(d,p)

Conformer number 189. Energy MM = 23.692 kcal/mol

0 1
C  -0.9462    -1.6610    -0.1907
H  -1.2298    -2.5195    -0.8142
H  -1.4425    -1.8415    0.7695
C  -1.4721    -0.4031    -0.8555
C  -1.2905    -0.3497    -2.3518
H  -1.7128    0.5614    -2.7889
H  -0.2284    -0.3772    -2.6130
H  -1.7877    -1.2028    -2.8248
C  -2.0894    0.6077    -0.2119
H  -2.4418    1.4568    -0.7969
C  -2.3464    0.7435    1.2552
H  -3.4247    0.7719    1.4399
H  -1.9148    1.6828    1.6158
H  -1.9207    -0.0639    1.8537
C  2.2065    0.9848    -0.3687
H  3.3001    1.0195    -0.4115
H  1.8254    2.0069    -0.4678
H  1.8592    0.4285    -1.2412
C  1.7603    0.3938    0.9396
C  2.1553    1.2022    2.1480
H  1.8150    0.7462    3.0837
H  1.7213    2.2059    2.0910
H  3.2449    1.2958    2.2013
C  1.0515    -0.7435    1.0788
H  0.7728    -1.0566    2.0850
C  0.5780    -1.6824    0.0003
H  1.0872    -1.5104    -0.9520
H  0.8703    -2.6959    0.3047

