%chk=nitrobenzene_004_gaussian.chk
%nproc=4
%mem=4000Mb
#p 6-31g* mp2

Conformer number 004. Energy MM = 49.472 kcal/mol

0 1
C  -1.9061    0.0744    -0.0156
C  -1.2578    -0.9938    0.6072
C  0.1368    -1.0537    0.6219
C  0.8765    -0.0342    0.0072
C  0.2287    1.0395    -0.6189
C  -1.1664    1.0885    -0.6270
H  -2.9933    0.1169    -0.0245
H  -1.8409    -1.7802    1.0815
H  0.6268    -1.8928    1.1113
H  0.7906    1.8374    -1.0997
H  -1.6785    1.9177    -1.1103
N  2.3432    -0.0915    0.0192
O  2.9616    0.8289    -0.5350
O  2.8787    -1.0570    0.5828

