%chk=02-IsoP_166_gaussian.chk
%nproc=1
%mem=1000Mb
#p opt pm3

Conformer number 166. Energy MM = 23.242 kcal/mol

0 1
C  -0.8549    0.8312    -0.0216
H  -0.8725    0.5456    1.0370
H  -0.8468    1.9295    -0.0167
C  -2.1079    0.3501    -0.7239
C  -2.5413    1.1862    -1.9007
H  -3.4553    0.8036    -2.3672
H  -2.7380    2.2154    -1.5832
H  -1.7607    1.2012    -2.6678
C  -2.8272    -0.7250    -0.3455
H  -3.7278    -0.9735    -0.9063
C  -2.5290    -1.6721    0.7737
H  -2.5471    -2.6996    0.3960
H  -1.5503    -1.5115    1.2313
H  -3.2938    -1.5815    1.5508
C  2.2146    -1.3013    1.3198
H  2.2189    -1.3533    2.4139
H  3.0096    -1.9518    0.9411
H  1.2577    -1.7106    0.9883
C  2.4473    0.1148    0.8699
C  3.6719    0.7604    1.4641
H  3.5922    0.7929    2.5556
H  3.8141    1.7870    1.1105
H  4.5675    0.1901    1.1967
C  1.6540    0.7975    0.0213
H  1.9149    1.8287    -0.2172
C  0.4203    0.3004    -0.6841
H  0.4718    0.6390    -1.7267
H  0.3979    -0.7933    -0.7317

