%chk=AtacPS_uff_001_gaussian.chk
%nproc=4
%mem=4000Mb
#p 6-31g* mp2

Conformer number 001. Energy MM = 115.340 kcal/mol

0 1
C          5.34210        2.00120       -8.59890
C          6.69820        1.96110       -8.21640
H          7.21090        2.86040       -7.90210
C          7.40360        0.75470       -8.23690
H          8.44500        0.73320       -7.94190
C          6.76770       -0.42250       -8.63500
H          7.31570       -1.35570       -8.64850
C          5.42410       -0.39600       -9.01630
H          4.93210       -1.30960       -9.32360
C          4.71410        0.80840       -9.00070
H          3.67290        0.80700       -9.29820
C          4.55740        3.30310       -8.57690
H          3.52010        3.11940       -8.93530
C          5.17750        4.31890       -9.54430
H          6.21290        4.58430       -9.24380
H          5.19780        3.89940      -10.57300
H          4.56840        5.24790       -9.56180
C          2.32920        2.68350       -6.54890
C          1.91290        1.37430       -6.84760
H          2.61040        0.54810       -6.79200
C          0.59080        1.12440       -7.22880
H          0.27720        0.11520       -7.46260
C         -0.32610        2.17560       -7.31020
H         -1.34870        1.98060       -7.60590
C          0.07660        3.47880       -7.00850
H         -0.63450        4.29240       -7.06970
C          1.39740        3.73390       -6.62890
H          1.69210        4.74960       -6.39790
C          3.75960        2.95960       -6.14910
H          3.76140        3.43030       -5.14250
H          4.33480        2.01160       -6.07040
C          4.47310        3.89320       -7.14760
H          5.49520        4.10570       -6.76700
H          3.93030        4.86220       -7.18370

