%chk=AtacPS_uff_006_gaussian.chk
%nproc=4
%mem=4000Mb
#p 6-31g* mp2

Conformer number 006. Energy MM = 139.805 kcal/mol

0 1
C          5.32280        1.97380       -8.61850
C          6.48190        1.80520       -9.41080
H          6.86080        2.59610      -10.04110
C          7.18330        0.59570       -9.39790
H          8.07040        0.47970      -10.00710
C          6.74550       -0.46230       -8.60110
H          7.29220       -1.39640       -8.59230
C          5.60150       -0.31620       -7.81730
H          5.26080       -1.13780       -7.20050
C          4.89400        0.88870       -7.82640
H          4.00770        0.97080       -7.21110
C          4.51830        3.27610       -8.58440
H          3.47610        3.02520       -8.88310
C          4.99600        4.34180       -9.59020
H          6.03640        4.66780       -9.38660
H          4.94400        3.93920      -10.62430
H          4.33510        5.23360       -9.54280
C          5.71390        4.70740       -5.13820
C          6.29320        3.98970       -4.07610
H          6.83460        3.07030       -4.26190
C          6.17360        4.45410       -2.76250
H          6.61980        3.89600       -1.94950
C          5.47900        5.63680       -2.49790
H          5.38750        5.99460       -1.48040
C          4.90370        6.35910       -3.54670
H          4.36740        7.27600       -3.34050
C          5.02010        5.89870       -4.86180
H          4.57090        6.47230       -5.66280
C          5.84120        4.20570       -6.55570
H          6.35350        4.98220       -7.16010
H          6.46990        3.28940       -6.57010
C          4.45990        3.86640       -7.15070
H          3.81890        4.77430       -7.16440
H          3.96480        3.13450       -6.47800

