%chk=AtacPS_uff_005_gaussian.chk
%nproc=4
%mem=4000Mb
#p 6-31g* mp2

Conformer number 005. Energy MM = 142.163 kcal/mol

0 1
C          5.36150        2.00400       -8.58600
C          6.53690        1.82950       -9.35400
H          6.93620        2.61730       -9.97500
C          7.22970        0.61500       -9.33090
H          8.12820        0.49510       -9.92300
C          6.76790       -0.44340       -8.54950
H          7.30690       -1.38220       -8.53530
C          5.60880       -0.29290       -7.78900
H          5.24860       -1.11570       -7.18550
C          4.90990        0.91750       -7.80700
H          4.00860        1.00080       -7.21390
C          4.55060        3.30470       -8.57540
H          3.51610        3.03410       -8.88050
C          5.05560        4.34370       -9.59680
H          6.07880        4.69050       -9.33780
H          5.05730        3.90470      -10.61730
H          4.38580        5.22470       -9.63890
C          2.19470        4.87990       -7.37100
C          1.43050        3.91220       -6.69420
H          1.85630        3.34850       -5.87430
C          0.10790        3.66520       -7.07530
H         -0.47450        2.91760       -6.55230
C         -0.46300        4.38120       -8.13040
H         -1.48660        4.18780       -8.42460
C          0.28650        5.34760       -8.80500
H         -0.15680        5.90260       -9.62200
C          1.60920        5.59870       -8.42770
H          2.17500        6.35020       -8.96370
C          3.62800        5.14570       -6.97290
H          4.05020        5.98190       -7.56760
H          3.65170        5.46990       -5.91030
C          4.52310        3.90050       -7.13810
H          4.15660        3.13410       -6.42530
H          5.55830        4.16450       -6.82940

