%chk=IsoP_uff_004_gaussian.chk
%nproc=4
%mem=4000Mb
#p 6-31g* mp2

Conformer number 004. Energy MM = 53.425 kcal/mol

0 1
C          2.12420        1.20270       -8.92000
H          1.81180        0.16280       -9.15880
H          1.94920        1.82640       -9.82520
C          3.59600        1.19830       -8.54900
C          4.05680        0.34460       -7.39020
H          4.50710        0.98540       -6.60280
H          3.21530       -0.22050       -6.93990
H          4.80380       -0.39810       -7.74090
C          4.46520        1.94720       -9.26750
H          4.09370        2.54270      -10.09700
C          5.94720        2.03290       -9.01330
H          6.28800        1.41680       -8.15840
H          6.48980        1.69570       -9.92060
H          6.21750        3.08910       -8.80660
C         -2.61020        2.21540       -7.76580
H         -2.73260        1.82700       -8.79960
H         -3.20410        1.57530       -7.08020
H         -3.01080        3.25040       -7.73270
C         -1.16960        2.22090       -7.32540
C         -0.84880        2.72470       -5.94010
H         -0.16720        3.59900       -6.00020
H         -1.77230        3.04030       -5.40960
H         -0.36700        1.92060       -5.34540
C         -0.20260        1.78100       -8.16000
H         -0.48220        1.42210       -9.14830
C          1.25920        1.76260       -7.78190
H          1.58810        2.80040       -7.55550
H          1.38160        1.13790       -6.87320

