%chk=IsoP_uff_003_gaussian.chk
%nproc=4
%mem=4000Mb
#p 6-31g* mp2

Conformer number 003. Energy MM = 54.904 kcal/mol

0 1
C          2.14130        1.26500       -8.97460
H          1.84080        0.22240       -9.21460
H          1.93620        1.88450       -9.87450
C          3.62280        1.28650       -8.63530
C          4.55080        2.13790       -9.47030
H          5.32230        1.49880       -9.94920
H          4.00550        2.67260      -10.27560
H          5.04160        2.90090       -8.83050
C          4.07940        0.54570       -7.59810
H          3.37770       -0.05760       -7.03020
C          5.51390        0.48410       -7.14540
H          6.19700        1.11410       -7.74790
H          5.57220        0.82470       -6.09060
H          5.86770       -0.56560       -7.20300
C          1.38590        5.30260       -6.13810
H          2.20390        5.66800       -6.79590
H          0.51130        5.97480       -6.26210
H          1.73750        5.35470       -5.08600
C          0.98360        3.88710       -6.46100
C         -0.11480        3.25230       -5.64560
H          0.26950        2.35070       -5.12460
H         -0.49690        3.95870       -4.87840
H         -0.96080        2.96560       -6.30520
C          1.60610        3.21680       -7.45500
H          2.39390        3.71820       -8.01120
C          1.26490        1.79160       -7.82460
H          1.39420        1.14050       -6.93440
H          0.20080        1.73940       -8.13990

