%chk=IsoP_uff_010_gaussian.chk
%nproc=4
%mem=4000Mb
#p 6-31g* mp2

Conformer number 010. Energy MM = 73.926 kcal/mol

0 1
C          2.06900        1.37860       -8.91790
H          1.67860        0.40270       -9.25710
H          1.93740        2.08630       -9.76430
C          3.55370        1.27690       -8.60030
C          4.22590       -0.07470       -8.64870
H          4.65000       -0.31950       -7.65210
H          3.51130       -0.87970       -8.91880
H          5.03700       -0.06760       -9.40720
C          4.24160        2.40120       -8.29080
H          3.72050        3.35400       -8.28010
C          5.70840        2.45680       -7.95680
H          6.20660        1.46850       -7.97890
H          6.21970        3.12000       -8.68570
H          5.83030        2.88370       -6.93970
C          0.84360       -1.06550       -5.15610
H          1.57820       -0.62270       -4.44990
H         -0.12880       -1.16710       -4.63070
H          1.20600       -2.07450       -5.44480
C          0.66260       -0.22730       -6.39570
C         -0.31440       -0.71820       -7.43620
H          0.18410       -0.91530       -8.40140
H         -0.78960       -1.66800       -7.11070
H         -1.12180        0.03160       -7.57820
C          1.34050        0.93930       -6.52170
H          1.98280        1.26220       -5.70720
C          1.25040        1.87230       -7.70830
H          0.18620        2.03870       -7.97900
H          1.65300        2.86040       -7.40220

