%chk=PET_uff_056_gaussian.chk
%nproc=4
%mem=4000Mb
#p 6-31g* mp2

Conformer number 056. Energy MM = 185.730 kcal/mol

0 1
C         -1.76920        0.06130        2.54030
C         -3.82330       -0.06600       -0.64860
H         -4.08430       -0.80460       -1.39640
C         -2.98040       -0.44240        0.39990
H         -2.61600       -1.46140        0.43250
C         -2.62640        0.47970        1.40090
C         -3.12550        1.79110        1.32120
H         -2.87350        2.52480        2.07660
C         -3.97070        2.16810        0.27040
H         -4.34730        3.18300        0.24170
C         -4.33370        1.24120       -0.72210
O         -5.56510        0.81020       -2.67530
C         -5.25340        1.63040       -1.82140
O         -5.76630        2.88800       -1.86460
O         -1.48630        0.94430        3.53780
O         -1.38850       -1.09910        2.61540
C         -6.67130        3.31440       -2.81680
H         -6.22710        3.21510       -3.83200
H         -7.59530        2.69760       -2.76040
C         -7.02990        4.77060       -2.56900
H         -6.11890        5.40270       -2.63300
H         -7.48400        4.88490       -1.56180
H         -7.75960        5.11150       -3.33350
C          5.80310        5.63710        2.39280
C          4.87640        2.10750        3.43550
H          5.38600        1.16880        3.61430
C          5.63050        3.21790        3.04560
H          6.70170        3.10740        2.93290
C          5.00740        4.45510        2.80610
C          3.61530        4.55700        2.96480
H          3.10640        5.49630        2.78950
C          2.86110        3.44660        3.35410
H          1.79040        3.55840        3.46970
C          3.48270        2.21010        3.59290
O          3.23210       -0.03270        4.23730
C          2.67910        1.03610        4.01250
O          1.33320        1.15560        4.16550
O          5.19280        6.82060        2.16510
O          7.01500        5.54920        2.25520
C          0.53120        0.14260        4.65170
H          0.61370       -0.75610        4.00590
H          0.87810       -0.13230        5.67240
C         -0.92140        0.61610        4.76010
H         -0.94610        1.51460        5.41270
H         -1.53770       -0.17180        5.24580
H          5.69320        7.60360        1.89490

