%chk=PET_uff_078_gaussian.chk
%nproc=4
%mem=4000Mb
#p 6-31g* mp2

Conformer number 078. Energy MM = 189.788 kcal/mol

0 1
C         -1.68570        0.22090        2.22560
C         -1.85290       -0.10390       -1.54750
H         -2.24910       -0.80710       -2.26930
C         -2.04420       -0.35820       -0.18740
H         -2.57980       -1.25310        0.10450
C         -1.53070        0.52000        0.78230
C         -0.83410        1.66530        0.36290
H         -0.42400        2.35900        1.08620
C         -0.64820        1.92330       -0.99840
H         -0.10080        2.81090       -1.29000
C         -1.14900        1.03770       -1.96790
O         -1.32970        0.50300       -4.24770
C         -0.92370        1.29870       -3.41050
O         -0.25590        2.41640       -3.79670
O         -1.07080        1.00910        3.14910
O         -2.30260       -0.77560        2.57940
C          0.06790        2.70590       -5.10630
H          0.74670        1.92090       -5.50660
H         -0.85430        2.74470       -5.72620
C          0.76580        4.05520       -5.17080
H          1.69180        4.03620       -4.55790
H          0.09020        4.84870       -4.78610
H          1.03310        4.28870       -6.22290
C          2.80080       -3.51960       11.32300
C          2.66740       -3.42490        7.53520
H          3.09500       -3.98060        6.70960
C          2.99030       -3.80780        8.83820
H          3.65860       -4.64730        8.98330
C          2.45600       -3.11430        9.93770
C          1.59200       -2.03100        9.70400
H          1.16540       -1.47700       10.53090
C          1.26650       -1.64910        8.39850
H          0.59750       -0.81050        8.24960
C          1.80180       -2.34210        7.30060
O          1.96310       -2.54600        4.97290
C          1.46180       -1.94290        5.91440
O          0.59080       -0.92410        5.68410
O          2.28600       -2.84630       12.37490
O          3.55090       -4.46400       11.52230
C          0.25240       -0.51840        4.40900
H          1.16320       -0.15820        3.88080
H         -0.16440       -1.38580        3.85340
C         -0.78260        0.60980        4.44260
H         -0.35460        1.47350        4.99420
H         -1.70950        0.28320        4.96320
H          2.49910       -3.09430       13.28480

