%chk=PET_uff_013_gaussian.chk
%nproc=4
%mem=4000Mb
#p 6-31g* mp2

Conformer number 013. Energy MM = 196.210 kcal/mol

0 1
C         -1.71820        0.30920        2.39380
C         -1.69460       -0.20240       -1.36210
H         -2.00180       -0.96770       -2.06380
C         -1.92170       -0.41000        0.00020
H         -2.39350       -1.33260        0.31420
C         -1.52510        0.55220        0.94520
C         -0.90720        1.73150        0.49810
H         -0.58580        2.48840        1.20220
C         -0.68580        1.94210       -0.86600
H         -0.20160        2.85880       -1.17920
C         -1.07170        0.97530       -1.80970
O         -1.11510        0.32850       -4.06790
C         -0.81300        1.19240       -3.25440
O         -0.23570        2.34970       -3.66850
O         -1.23030        1.19390        3.30390
O         -2.25880       -0.72220        2.77260
C          0.10420        2.61560       -4.97930
H          0.86600        1.88280       -5.32500
H         -0.79640        2.54250       -5.62750
C          0.67410        4.02160       -5.08110
H          1.57660        4.11570       -4.44060
H         -0.08570        4.76190       -4.75120
H          0.95340        4.23740       -6.13380
C          1.23280       -5.66630       -0.78090
C          2.67770       -3.40750        1.91000
H          3.64330       -3.22200        2.36370
C          2.57950       -4.37700        0.90620
H          3.47130       -4.91610        0.61190
C          1.34470       -4.64270        0.28720
C          0.21190       -3.92040        0.69550
H         -0.75350       -4.10010        0.23980
C          0.31200       -2.95350        1.69760
H         -0.57850       -2.41810        1.98460
C          1.54330       -2.68330        2.31670
O          2.71570       -1.40320        3.90300
C          1.64010       -1.63860        3.36870
O          0.53980       -0.91220        3.69650
O          0.03980       -5.90910       -1.36690
O          2.21800       -6.29590       -1.13910
C          0.54900        0.18270        4.53920
H          0.86020       -0.11990        5.56260
H          1.27190        0.93330        4.14870
C         -0.83790        0.83610        4.58260
H         -0.76490        1.75190        5.20560
H         -1.58910        0.16340        5.05260
H         -0.05520       -6.57150       -2.06590

