%chk=PET_uff_061_gaussian.chk
%nproc=4
%mem=4000Mb
#p 6-31g* mp2

Conformer number 061. Energy MM = 186.630 kcal/mol

0 1
C         -1.58230        0.07720        2.38620
C         -2.96360        0.05700       -1.14660
H         -3.36180       -0.67310       -1.84030
C         -2.54480       -0.37430        0.11400
H         -2.63110       -1.42580        0.35810
C         -2.02270        0.53940        1.04630
C         -1.92630        1.89440        0.68790
H         -1.52860        2.62270        1.38370
C         -2.34730        2.32700       -0.57490
H         -2.26370        3.37820       -0.82080
C         -2.87160        1.41270       -1.50510
O         -3.78710        1.06520       -3.63970
C         -3.32640        1.87120       -2.84160
O         -3.23890        3.18580       -3.17290
O         -1.03840        0.95960        3.26870
O         -1.68690       -1.10570        2.68390
C         -3.68450        3.70530       -4.37200
H         -3.15240        3.21770       -5.21810
H         -4.77750        3.52650       -4.47500
C         -3.41820        5.20170       -4.41200
H         -2.32810        5.39570       -4.32500
H         -3.94690        5.70520       -3.57500
H         -3.78340        5.62090       -5.37330
C         -5.95610        7.15940        6.31590
C         -2.92350        4.96820        6.94740
H         -1.98300        5.04500        7.47880
C         -3.79630        6.05880        6.96940
H         -3.50630        6.94730        7.51640
C         -5.02750        6.00150        6.29380
C         -5.36560        4.82900        5.59650
H         -6.30690        4.75410        5.06660
C         -4.49160        3.73670        5.57470
H         -4.78090        2.84730        5.02900
C         -3.26100        3.79470        6.24990
O         -1.26830        2.70430        6.83160
C         -2.33290        2.63670        6.23060
O         -2.67750        1.49510        5.57360
O         -7.13710        7.09570        5.66390
O         -5.65870        8.17770        6.92360
C         -1.86980        0.37570        5.46330
H         -1.53330        0.05900        6.47480
H         -2.46930       -0.45550        5.03960
C         -0.65330        0.64100        4.56000
H          0.01250       -0.24950        4.54210
H         -0.06240        1.48340        4.97280
H         -7.75560        7.83980        5.66620

