%chk=PET_uff_174_gaussian.chk
%nproc=4
%mem=4000Mb
#p 6-31g* mp2

Conformer number 174. Energy MM = 186.978 kcal/mol

0 1
C         -1.35930        0.09760        2.30030
C         -0.61790       -0.85110       -1.30090
H         -1.03550       -1.49730       -2.06290
C         -1.25470       -0.77410       -0.05740
H         -2.14620       -1.36510        0.11250
C         -0.73180        0.04250        0.95950
C          0.43190        0.78690        0.70470
H          0.86360        1.42260        1.46760
C          1.06510        0.71220       -0.53560
H          1.96430        1.29420       -0.69360
C          0.55240       -0.11140       -1.55000
O          0.82140       -0.92830       -3.73710
C          1.25370       -0.20090       -2.85280
O          2.39120        0.51530       -3.04720
O         -0.74300        0.81240        3.27660
O         -2.35710       -0.56680        2.54500
C          3.16350        0.45730       -4.18760
H          3.54050       -0.57910       -4.33290
H          2.55940        0.75680       -5.07160
C          4.34560        1.40350       -4.04320
H          4.95950        1.11450       -3.16350
H          3.98330        2.44470       -3.90620
H          4.97770        1.35820       -4.95470
C          1.91090       -6.42970        1.02360
C          2.78890       -2.91070        2.14840
H          3.55400       -2.17330        1.93900
C          2.83880       -4.13960        1.48270
H          3.64100       -4.32000        0.77860
C          1.86250       -5.12280        1.72440
C          0.83560       -4.84860        2.64300
H          0.06840       -5.58380        2.84970
C          0.78530       -3.61980        3.30670
H         -0.02090       -3.44030        4.00660
C          1.76230       -2.63810        3.06950
O          2.54190       -0.47710        3.55760
C          1.69500       -1.33330        3.77370
O          0.65510       -1.08180        4.61560
O          0.97000       -7.36780        1.26920
O          2.80290       -6.66840        0.22200
C          0.37310        0.13230        5.21890
H          0.28030       -0.01260        6.31550
H          1.17280        0.88340        5.03390
C         -0.93360        0.65820        4.63590
H         -1.19820        1.63690        5.08850
H         -1.74490       -0.06820        4.86320
H          0.98510       -8.22780        0.82570

