%chk=PET_uff_054_gaussian.chk
%nproc=4
%mem=4000Mb
#p 6-31g* mp2

Conformer number 054. Energy MM = 219.828 kcal/mol

0 1
C         -1.47550        0.26330        2.28230
C         -3.80600       -0.03270       -0.67600
H         -4.09770       -0.79350       -1.38910
C         -2.85460       -0.35020        0.29190
H         -2.44220       -1.35100        0.31020
C         -2.45200        0.61120        1.23400
C         -3.01770        1.89400        1.19150
H         -2.73000        2.65300        1.90940
C         -3.96360        2.21420        0.21810
H         -4.37690        3.21510        0.20390
C         -4.36610        1.25410       -0.72550
O         -5.67700        0.78120       -2.61130
C         -5.34320        1.60960       -1.77410
O         -5.81290        2.88200       -1.84170
O         -1.22530        1.14710        3.28400
O         -0.97600       -0.85460        2.30680
C         -6.33890        3.45310       -2.98100
H         -7.16760        2.83110       -3.38420
H         -6.74360        4.45390       -2.72110
C         -5.23670        3.63520       -4.02400
H         -4.80580        2.65360       -4.31450
H         -4.42520        4.26710       -3.60190
H         -5.64560        4.12730       -4.92910
C         -0.32040       -3.92050       11.81320
C         -2.77850       -2.77220        9.16090
H         -3.81990       -2.92990        8.91000
C         -2.24660       -3.41470       10.28220
H         -2.89330       -4.05210       10.87240
C         -0.89610       -3.23900       10.63080
C         -0.08940       -2.40670        9.83780
H          0.95490       -2.25120       10.07770
C         -0.61930       -1.76560        8.71920
H          0.03020       -1.13410        8.12540
C         -1.96700       -1.94230        8.37030
O         -3.67650       -1.43780        6.84390
C         -2.50840       -1.27120        7.17000
O         -1.68100       -0.51110        6.40930
O          0.98180       -3.74780       12.12670
O         -1.01780       -4.64630       12.51050
C         -2.03990       -0.00930        5.18250
H         -2.32690       -0.86250        4.53050
H         -2.91150        0.67450        5.28180
C         -0.86450        0.74420        4.55370
H          0.04040        0.09850        4.50620
H         -0.62820        1.63570        5.17220
H          1.38140       -4.18610       12.89140

