%chk=PET_uff_015_gaussian.chk
%nproc=4
%mem=4000Mb
#p 6-31g* mp2

Conformer number 015. Energy MM = 222.632 kcal/mol

0 1
C         -1.72460        0.07120        2.48880
C         -4.62890       -0.53430        0.12980
H         -4.91290       -1.27060       -0.61150
C         -3.39500       -0.66780        0.77070
H         -2.75970       -1.50500        0.50930
C         -2.99790        0.25490        1.75370
C         -3.85270        1.32340        2.07020
H         -3.57720        2.04700        2.82710
C         -5.08940        1.45410        1.43260
H         -5.73400        2.27820        1.71160
C         -5.49530        0.52150        0.46210
O         -7.17220       -0.17370       -1.02720
C         -6.82690        0.63820       -0.17840
O         -7.67740        1.62170        0.21380
O         -1.37170        0.94650        3.46450
O         -1.03530       -0.91890        2.28190
C         -8.96870        1.75540       -0.25320
H         -8.96010        1.90620       -1.35460
H         -9.55160        0.83890       -0.01240
C         -9.62880        2.95100        0.41520
H         -9.06410        3.87790        0.17960
H         -9.64950        2.80700        1.51660
H        -10.67070        3.05830        0.04680
C          2.91780       -1.76260       11.94400
C          3.71090       -0.30250        8.52510
H          4.58900       -0.01450        7.96050
C          3.87380       -0.82350        9.81430
H          4.87510       -0.92320       10.21430
C          2.75610       -1.21130       10.57610
C          1.47450       -1.06940       10.02200
H          0.59320       -1.35710       10.58160
C          1.31230       -0.55430        8.73510
H          0.30840       -0.46030        8.33990
C          2.42700       -0.16410        7.97180
O          3.17900        0.76080        5.93710
C          2.22830        0.37610        6.60430
O          0.97360        0.39920        6.09520
O          1.83320       -2.12560       12.66230
O          4.03240       -1.89170       12.42990
C          0.60030        0.85680        4.85050
H          0.78210        1.95060        4.77100
H          1.17580        0.32320        4.06260
C         -0.87840        0.53720        4.68810
H         -1.46340        1.04070        5.48720
H         -1.01200       -0.56150        4.82130
H          1.91480       -2.48600       13.55650

