%chk=PET_uff_073_gaussian.chk
%nproc=4
%mem=4000Mb
#p 6-31g* mp2

Conformer number 073. Energy MM = 216.781 kcal/mol

0 1
C         -1.72680        0.23280        2.32100
C         -4.55650       -0.40760       -0.12770
H         -4.79890       -1.12160       -0.90530
C         -3.32630       -0.51660        0.52940
H         -2.64980       -1.31380        0.24690
C         -2.98850        0.37950        1.55750
C         -3.89540        1.39550        1.90370
H         -3.66880        2.09690        2.69560
C         -5.12350        1.50080        1.25070
H         -5.80620        2.28430        1.55460
C         -5.47220        0.59630        0.23480
O         -7.10940       -0.08860       -1.30630
C         -6.80050        0.69400       -0.41740
O         -7.68660        1.62980        0.01190
O         -1.48140        1.07930        3.35330
O         -0.97740       -0.71030        2.10530
C         -8.97870        1.74970       -0.45380
H         -8.97070        1.95640       -1.54600
H         -9.53630        0.80670       -0.26110
C         -9.67220        2.89220        0.27250
H         -9.13200        3.84470        0.08650
H         -9.69000        2.69270        1.36550
H        -10.71620        2.99110       -0.09200
C         -1.11960       -1.95070       12.95720
C         -2.87850       -2.27760        9.61460
H         -3.75610       -2.77660        9.22240
C         -2.57020       -2.43000       10.96770
H         -3.21740       -3.04330       11.58270
C         -1.44430       -1.79510       11.51850
C         -0.63210       -1.00700       10.68480
H          0.24160       -0.50440       11.07990
C         -0.94070       -0.85450        9.32920
H         -0.29920       -0.23740        8.71240
C         -2.06780       -1.48740        8.78120
O         -3.41160       -1.85860        6.89920
C         -2.41020       -1.31590        7.35020
O         -1.63730       -0.53600        6.54590
O         -0.03870       -1.33210       13.48060
O         -1.82870       -2.63610       13.68010
C         -2.00960       -0.22160        5.25560
H         -2.13900       -1.15350        4.66200
H         -2.98050        0.32240        5.28760
C         -0.97600        0.67870        4.57470
H         -0.00070        0.15800        4.45580
H         -0.82270        1.58420        5.19930
H          0.18720       -1.41870       14.41750

