%chk=PET_uff_175_gaussian.chk
%nproc=4
%mem=4000Mb
#p 6-31g* mp2

Conformer number 175. Energy MM = 185.896 kcal/mol

0 1
C         -1.31790       -0.03130        2.28650
C         -0.79820        1.96300       -0.89910
H         -0.58740        2.98960       -1.17310
C         -0.94020        1.64230        0.45530
H         -0.83490        2.42930        1.19230
C         -1.20490        0.32040        0.85020
C         -1.33300       -0.67210       -0.13640
H         -1.53350       -1.70110        0.13510
C         -1.18200       -0.35360       -1.48740
H         -1.27340       -1.14530       -2.22070
C         -0.90920        0.96530       -1.88370
O         -0.51970        2.44150       -3.67050
C         -0.72420        1.28690       -3.32000
O         -0.74190        0.28430       -4.23610
O         -1.05920        0.90980        3.23500
O         -1.57540       -1.18390        2.60900
C         -0.52740        0.46390       -5.58710
H         -1.31460        1.12500       -6.01060
H          0.47010        0.92690       -5.75180
C         -0.56430       -0.88540       -6.28750
H         -1.55500       -1.36610       -6.13980
H          0.22610       -1.54820       -5.87560
H         -0.38720       -0.74920       -7.37580
C          2.68060       -1.71500       12.12740
C          3.36090        0.20340        8.92430
H          4.19750        0.71190        8.46140
C          3.54540       -0.39460       10.17400
H          4.51890       -0.33060       10.64370
C          2.48690       -1.07120       10.80480
C          1.23990       -1.13330       10.16070
H          0.40510       -1.64750       10.62000
C          1.05570       -0.53620        8.91020
H          0.08410       -0.60690        8.43740
C          2.11440        0.13700        8.27800
O          2.85110        1.32310        6.39010
C          1.92080        0.74930        6.94100
O          0.72330        0.62700        6.31120
O          1.65780       -2.36750       12.72160
O          3.76700       -1.66410       12.68620
C          0.51200        0.99380        4.99830
H          0.69880        2.08160        4.86070
H          1.21100        0.41870        4.35050
C         -0.91470        0.65270        4.58730
H         -1.64040        1.26240        5.16620
H         -1.09840       -0.41870        4.82260
H          1.76460       -2.79770       13.58190

