%chk=PET_uff_011_gaussian.chk
%nproc=4
%mem=4000Mb
#p 6-31g* mp2

Conformer number 011. Energy MM = 191.403 kcal/mol

0 1
C         -1.72000        0.11360        2.26120
C         -3.80860        0.01650       -0.89980
H         -4.07150       -0.71120       -1.65760
C         -2.95120       -0.36930        0.13250
H         -2.57640       -1.38560        0.14430
C         -2.59350        0.54010        1.14240
C         -3.10510        1.84720        1.09340
H         -2.85120        2.56920        1.85940
C         -3.96600        2.23290        0.06120
H         -4.35270        3.24450        0.05610
C         -4.33130        1.32060       -0.94320
O         -5.57610        0.92200       -2.89460
C         -5.26620        1.72280       -2.02270
O         -5.79620        2.97330       -2.02290
O         -1.39540        0.99220        3.24950
O         -1.32830       -1.04520        2.31790
C         -6.71910        3.41650       -2.94800
H         -6.28670        3.36100       -3.97090
H         -7.63230        2.78300       -2.90080
C         -7.09740        4.85640       -2.63970
H         -6.19740        5.50500       -2.69140
H         -7.53770        4.92400       -1.62200
H         -7.84390        5.21400       -3.37970
C         -0.38100       -3.83560       12.02550
C         -2.82780       -2.34790        9.53860
H         -3.90190       -2.30110        9.40880
C         -2.31540       -3.01970       10.65100
H         -3.00760       -3.47180       11.35020
C         -0.92780       -3.11130       10.85190
C         -0.06420       -2.51060        9.91980
H          1.00960       -2.56460       10.04660
C         -0.57760       -1.83610        8.80710
H          0.11320       -1.38940        8.10260
C         -1.96430       -1.75150        8.60350
O         -3.72150       -1.03420        7.22690
C         -2.51090       -1.06100        7.41050
O         -1.67140       -0.48830        6.50630
O          0.95460       -3.93190       12.20300
O         -1.13430       -4.35700       12.83550
C         -2.10160       -0.03160        5.27780
H         -2.51120       -0.89190        4.70530
H         -2.90480        0.72740        5.41010
C         -0.94870        0.60570        4.50070
H         -0.09190       -0.09700        4.40230
H         -0.60070        1.50290        5.05550
H          1.33030       -4.40730       12.95750

