%chk=PET_uff_090_gaussian.chk
%nproc=4
%mem=4000Mb
#p 6-31g* mp2

Conformer number 090. Energy MM = 181.566 kcal/mol

0 1
C         -1.31710       -0.04110        2.47820
C         -0.43680       -1.08250       -1.06570
H         -0.76730       -1.81740       -1.78920
C         -1.07240       -1.02900        0.17880
H         -1.87790       -1.72290        0.38480
C         -0.66800       -0.09250        1.14590
C          0.38020        0.79180        0.84010
H          0.71740        1.52350        1.56400
C          1.02050        0.73250       -0.39950
H          1.83240        1.42100       -0.59840
C          0.62200       -0.20670       -1.36490
O          0.95890       -1.07770       -3.52110
C          1.32260       -0.27620       -2.67040
O          2.39110        0.53030       -2.90110
O         -0.95190        0.92770        3.35670
O         -2.17250       -0.86270        2.77900
C          3.14780        0.50260       -4.05410
H          3.58150       -0.51180       -4.19480
H          2.51240        0.75570       -4.93080
C          4.28010        1.51180       -3.94080
H          4.92430        1.26210       -3.07040
H          3.86790        2.53410       -3.80640
H          4.89770        1.48850       -4.86310
C          3.66120        7.91780        3.41490
C          3.38310        4.80150        5.56890
H          3.92510        4.34480        6.38740
C          3.85000        6.00970        5.04060
H          4.74110        6.45520        5.46540
C          3.17250        6.63500        3.97790
C          2.02030        6.02610        3.45600
H          1.47620        6.48110        2.63780
C          1.55310        4.82020        3.98410
H          0.66070        4.37830        3.55800
C          2.22750        4.19420        5.04640
O          2.31160        2.35430        6.51130
C          1.71800        2.91570        5.60010
O          0.57970        2.38190        5.09080
O          3.00010        8.50700        2.39430
O          4.66270        8.45030        3.86970
C          0.00110        1.19940        5.50520
H          0.70540        0.35440        5.34070
H         -0.25230        1.26070        6.58630
C         -1.27290        0.97140        4.70030
H         -1.96410        1.82310        4.87770
H         -1.76890        0.03630        5.04120
H          3.30100        9.34430        2.01340

