%chk=PET_uff_184_gaussian.chk
%nproc=4
%mem=4000Mb
#p 6-31g* mp2

Conformer number 184. Energy MM = 211.892 kcal/mol

0 1
C         -1.74820        0.16930        2.69090
C         -5.28500        1.28710        1.90890
H         -6.04110        1.91140        2.36850
C         -4.03950        1.17010        2.53280
H         -3.86940        1.70400        3.45950
C         -3.04040        0.34880        1.98380
C         -3.30530       -0.33430        0.78410
H         -2.55560       -0.97470        0.33600
C         -4.54800       -0.21060        0.15550
H         -4.72420       -0.75770       -0.76220
C         -5.55530        0.59180        0.71720
O         -7.77420        1.35310        0.58790
C         -6.88890        0.68290        0.07220
O         -7.13080       -0.00150       -1.07630
O         -1.48520        0.88800        3.81230
O         -0.94170       -0.65920        2.29180
C         -8.36590       -0.06650       -1.68910
H         -9.09670       -0.55410       -1.00670
H         -8.72240        0.95690       -1.93750
C         -8.25720       -0.87940       -2.96970
H         -7.90340       -1.90730       -2.74140
H         -7.54120       -0.39380       -3.66640
H         -9.25150       -0.94070       -3.46030
C          5.66940       -2.03650       -0.35310
C          4.88330        0.17370        2.63220
H          5.42960        0.78960        3.33550
C          5.59300       -0.50150        1.63510
H          6.66920       -0.38650        1.59200
C          4.92140       -1.31550        0.70610
C          3.52500       -1.44090        0.79850
H          2.97850       -2.06110        0.09930
C          2.81660       -0.76970        1.79830
H          1.74210       -0.89150        1.84340
C          3.48580        0.04570        2.72590
O          3.31520        1.46680        4.59010
C          2.72810        0.74260        3.79420
O          1.39330        0.52510        3.92210
O          5.01180       -2.81400       -1.24020
O          6.88560       -1.93240       -0.43020
C          0.62870        1.00920        4.96580
H          1.08450        0.67670        5.92500
H          0.59090        2.12050        4.94970
C         -0.77140        0.41070        4.89500
H         -1.33400        0.68360        5.81470
H         -0.69020       -0.69930        4.87460
H          5.48030       -3.29290       -1.93840

