%chk=PET_uff_080_gaussian.chk
%nproc=4
%mem=4000Mb
#p 6-31g* mp2

Conformer number 080. Energy MM = 187.215 kcal/mol

0 1
C         -1.43960        0.08320        2.41520
C         -1.02970        2.04090       -0.81010
H         -0.91510        3.07470       -1.11200
C         -1.18400        1.74490        0.54930
H         -1.18450        2.55750        1.26510
C         -1.32770        0.41280        0.97560
C         -1.31950       -0.61370        0.01900
H         -1.41930       -1.65020        0.31610
C         -1.15220       -0.32020       -1.33300
H         -1.13320       -1.13950       -2.04070
C         -1.00090        1.00720       -1.76320
O         -0.70590        2.44370       -3.60300
C         -0.79630        1.29040       -3.20340
O         -0.66630        0.24960       -4.06490
O         -1.21840        1.05310        3.34140
O         -1.61620       -1.07760        2.76090
C         -0.44730        0.36870       -5.41970
H         -1.30850        0.88410       -5.89720
H          0.48180        0.95140       -5.60410
C         -0.28570       -1.02100       -6.01720
H         -1.20160       -1.62280       -5.83590
H          0.58150       -1.53450       -5.54870
H         -0.11110       -0.94540       -7.11060
C          5.53300       -2.04940       -0.27850
C          4.80900        0.02310        2.81880
H          5.37460        0.58380        3.55260
C          5.49830       -0.62400        1.78930
H          6.57780       -0.54650        1.75570
C          4.80260       -1.36090        0.81490
C          3.40120       -1.43590        0.89330
H          2.83600       -1.99380        0.15700
C          2.71130       -0.79020        1.92460
H          1.63140       -0.86620        1.95440
C          3.40790       -0.05350        2.89980
O          3.27630        1.31060        4.81400
C          2.67090        0.63620        3.98980
O          1.32100        0.52470        4.05780
O          4.85590       -2.75690       -1.20920
O          6.75220       -1.98240       -0.34420
C          0.50890        1.21600        4.93660
H          0.78170        0.97920        5.98810
H          0.62410        2.30840        4.76330
C         -0.93830        0.81460        4.67580
H         -1.63210        1.39590        5.31870
H         -1.04770       -0.26140        4.93650
H          5.31500       -3.21410       -1.92860

