%chk=PET_uff_093_gaussian.chk
%nproc=4
%mem=4000Mb
#p 6-31g* mp2

Conformer number 093. Energy MM = 189.727 kcal/mol

0 1
C         -1.53780        0.04140        2.37240
C         -0.94450        1.99390       -0.82410
H         -0.73200        3.01730       -1.10730
C         -1.12610        1.69200        0.52980
H         -1.04990        2.49010        1.25730
C         -1.39410        0.37300        0.93510
C         -1.48340       -0.63490       -0.03810
H         -1.68240       -1.66140        0.24320
C         -1.28750       -0.33580       -1.38740
H         -1.34580       -1.13990       -2.11060
C         -1.01150        0.97920       -1.79510
O         -0.58550        2.42760       -3.59710
C         -0.77400        1.27580       -3.22810
O         -0.71310        0.25100       -4.11700
O         -1.26250        0.98630        3.30920
O         -1.81980       -1.10140        2.71100
C         -0.44970        0.39960       -5.46210
H         -1.25570        0.99650       -5.94150
H          0.52500        0.91730       -5.60120
C         -0.37100       -0.97330       -6.11190
H         -1.33330       -1.51270       -5.98430
H          0.44230       -1.56700       -5.64120
H         -0.15510       -0.86570       -7.19540
C          6.50560        3.15460        1.01610
C          4.82070        0.25920        2.80260
H          5.06420       -0.75960        3.07730
C          5.77250        1.01660        2.11320
H          6.72680        0.56340        1.87500
C          5.49540        2.34330        1.73930
C          4.24410        2.89320        2.06390
H          3.99970        3.91180        1.78960
C          3.29060        2.13450        2.74850
H          2.33600        2.58830        2.98400
C          3.56960        0.81090        3.12900
O          2.81290       -1.12550        4.22540
C          2.55430        0.01400        3.86080
O          1.32560        0.54430        4.09000
O          6.23330        4.43350        0.67650
O          7.59260        2.67440        0.72800
C          0.30440       -0.10700        4.75300
H          0.13980       -1.10290        4.28900
H          0.57360       -0.25970        5.82050
C         -0.98030        0.72120        4.63870
H         -0.82980        1.68880        5.16250
H         -1.83020        0.19000        5.11980
H          6.88090        4.98210        0.21150

