%chk=PET_uff_085_gaussian.chk
%nproc=4
%mem=4000Mb
#p 6-31g* mp2

Conformer number 085. Energy MM = 193.242 kcal/mol

0 1
C         -1.51270       -0.01730        2.36740
C         -1.61520       -0.26370       -1.41390
H         -1.97210       -0.97050       -2.15240
C         -1.79860       -0.55830       -0.06190
H         -2.29240       -1.48480        0.20310
C         -1.34300        0.32570        0.93220
C         -0.70660        1.51540        0.54390
H         -0.34270        2.21420        1.28670
C         -0.51890        1.80930       -0.81290
H         -0.01620        2.72930       -1.08310
C         -0.96740        0.91920       -1.80550
O         -1.14680        0.42790       -4.09500
C         -0.74760        1.21310       -3.24410
O         -0.07990        2.33690       -3.61340
O         -1.08940        0.83950        3.33780
O         -2.02690       -1.08580        2.67280
C          0.23490        2.64370       -4.92230
H          0.88150        1.84520       -5.34870
H         -0.69450        2.72380       -5.52750
C          0.98170        3.96650       -4.97350
H          1.91680        3.89900       -4.37780
H          0.34480        4.77860       -4.56360
H          1.24200        4.20800       -6.02590
C          0.99410        8.53190        7.18650
C          2.55090        5.12840        6.54530
H          3.51780        4.65660        6.66940
C          2.40360        6.46950        6.91350
H          3.26110        6.99880        7.31010
C          1.16140        7.11440        6.78050
C          0.07310        6.39230        6.26340
H         -0.89680        6.85990        6.14920
C          0.22040        5.05230        5.89490
H         -0.64100        4.52190        5.50860
C          1.45900        4.40420        6.03530
O          2.66350        2.39520        5.84250
C          1.59530        2.97010        5.67890
O          0.51090        2.28600        5.23110
O         -0.20950        9.13440        7.06960
O          1.93990        9.16070        7.63940
C          0.43890        0.90900        5.17090
H          1.23200        0.49420        4.50990
H          0.57630        0.50510        6.19810
C         -0.93810        0.48900        4.67040
H         -1.71810        0.98930        5.28340
H         -1.03870       -0.60980        4.81200
H         -0.34290       10.05430        7.33830

