%chk=PET_uff_034_gaussian.chk
%nproc=4
%mem=4000Mb
#p 6-31g* mp2

Conformer number 034. Energy MM = 198.055 kcal/mol

0 1
C         -1.37770        0.13500        2.30920
C         -0.60410       -0.95810       -1.24890
H         -0.96520       -1.68630       -1.96420
C         -1.23120       -0.86660        0.00010
H         -2.06040       -1.52710        0.22130
C         -0.77580        0.05680        0.95700
C          0.30640        0.89270        0.63540
H          0.68670        1.61170        1.35030
C          0.93400        0.79740       -0.60480
H          1.77530        1.44790       -0.80960
C          0.49290       -0.13210       -1.55830
O          0.81700       -1.04010       -3.70260
C          1.20010       -0.24340       -2.85650
O          2.30470        0.51620       -3.07620
O         -0.87180        1.03550        3.18810
O         -2.25590       -0.64600        2.64900
C          3.09630        0.43930       -4.20260
H          3.50350       -0.59050       -4.30550
H          2.49850        0.69200       -5.10490
C          4.25410        1.41750       -4.06960
H          4.86020        1.16900       -3.17180
H          3.86780        2.45410       -3.96980
H          4.90310        1.35810       -4.96840
C          2.27550        0.45430       12.76100
C          3.25500        0.72500        9.10810
H          4.17020        0.78380        8.53160
C          3.34460        0.63120       10.49800
H          4.32540        0.62030       10.95680
C          2.18240        0.55300       11.28350
C          0.92880        0.56980       10.64730
H          0.01520        0.51080       11.22550
C          0.83890        0.66350        9.25480
H         -0.14020        0.67450        8.79280
C          2.00160        0.74240        8.47120
O          2.94240        0.91350        6.33370
C          1.91370        0.84290        6.99610
O          0.70240        0.85500        6.37590
O          1.15370        0.38120       13.50900
O          3.36760        0.43960       13.31120
C          0.58300        0.94930        5.00490
H          1.04970        1.89820        4.65680
H          1.11080        0.09220        4.52890
C         -0.87490        0.92680        4.56320
H         -1.42230        1.78800        5.00170
H         -1.35270       -0.01900        4.90300
H          1.19400        0.31750       14.47380

