%chk=PET_uff_179_gaussian.chk
%nproc=4
%mem=4000Mb
#p 6-31g* mp2

Conformer number 179. Energy MM = 181.250 kcal/mol

0 1
C         -1.37960        0.12430        2.39380
C         -1.28250       -0.43840       -1.36040
H         -1.45740       -1.25280       -2.05230
C         -1.45000       -0.66950        0.00880
H         -1.74990       -1.65610        0.33970
C         -1.22860        0.36170        0.93790
C         -0.83870        1.62750        0.46880
H         -0.65570        2.44200        1.15850
C         -0.66500        1.85640       -0.89780
H         -0.35570        2.84140       -1.22440
C         -0.88280        0.82650       -1.82760
O         -0.88940        0.18240       -4.08730
C         -0.68170        1.07540       -3.27620
O         -0.24400        2.29180       -3.69350
O         -1.20780        1.15920        3.25660
O         -1.63990       -0.99500        2.81390
C          0.00670        2.61400       -5.01140
H          0.78320        1.93320       -5.42450
H         -0.92540        2.51410       -5.60910
C          0.50920        4.04710       -5.09610
H          1.44570        4.15630       -4.50850
H         -0.25620        4.74390       -4.69350
H          0.71630        4.31020       -6.15480
C          6.19840        3.83300        0.81740
C          4.95840        1.48920        3.53560
H          5.38680        0.80370        4.25630
C          5.81410        2.19300        2.68210
H          6.88180        2.03310        2.76600
C          5.29600        3.08940        1.73050
C          3.90520        3.26910        1.65320
H          3.47440        3.95050        0.93030
C          3.05030        2.56880        2.50830
H          1.98270        2.72840        2.41970
C          3.56680        1.67010        3.45790
O          3.08680        0.09390        5.13780
C          2.64780        0.92170        4.35030
O          1.31440        1.15940        4.27740
O          5.68720        4.68340       -0.09980
O          7.40990        3.67990        0.88520
C          0.34170        0.42740        4.92740
H          0.37230       -0.62430        4.56970
H          0.51350        0.44060        6.02580
C         -1.02270        1.04610        4.62160
H         -1.04010        2.06920        5.05370
H         -1.84420        0.45880        5.08660
H          6.25740        5.17480       -0.70790

