%Mem=61440MB 
%NProc=8 

#P B3LYP/6-31G(d) Integral=Ultrafine SCF(Conver=8,XQC,MaxConventionalCycles=64,MaxCycle=128) NoSymm Test 
   Pop=mk IOp(6/33=2) GFInput GFPrint 

 MEP step - Input generated by PyRED DVE-DMDS-OPLS 

0 1 
C        9.175051         7.462468         0.000032
H       10.260232         7.612750         0.000015
H        8.756491         7.948790        -0.887032
H        8.756526         7.948742         0.887138
C        8.844665         5.979004        -0.000002
H        9.276063         5.484716        -0.887318
H        9.276093         5.484669         0.887274
O        7.434052         5.833031         0.000018
C        7.013230         4.484510        -0.000004
H        7.386175         3.949627         0.888902
H        7.386156         3.949663        -0.888940
C        5.491456         4.479232         0.000013
H        5.117403         5.011675         0.889083
H        5.117384         5.011704        -0.889033
O        5.067792         3.129105        -0.000004
C        3.661317         2.986164         0.000008
H        3.213735         3.458758        -0.889068
H        3.213754         3.458740         0.889104
C        3.353304         1.495901        -0.000005
H        3.800400         1.023362         0.889193
H        3.800393         1.023379        -0.889215
O        1.944936         1.352155        -0.000000
C        1.524597         0.000000         0.000000
H        1.909557        -0.525299         0.889169
H        1.909558        -0.525300        -0.889168
C        0.000000         0.000000        -0.000000
H       -0.364649         0.525340        -0.888790
H       -0.364650         0.525348         0.888784
S       -0.622530        -1.727325         0.000007
C       -2.429250        -1.381081         0.000001
H       -2.682432        -0.793108         0.888490
H       -2.682430        -0.793139        -0.888508
C       -3.196041        -2.702293         0.000024
H       -2.942221        -3.289975         0.888603
H       -2.942218        -3.290008        -0.888532
S       -5.003088        -2.356019         0.000014
C       -5.633286        -4.084991         0.000064
H       -5.258574        -4.603984         0.888614
H       -5.258575        -4.604036        -0.888456
C       -7.160893        -4.066990         0.000064
H       -7.534618        -3.546173         0.888328
H       -7.534619        -3.546229        -0.888232
S       -7.791670        -5.794514         0.000119
C       -9.599358        -5.457120         0.000112
H       -9.847748        -4.863062         0.886903
H       -9.847751        -4.863122        -0.886719
C      -10.378258        -6.772022         0.000157
H      -11.455265        -6.569770         0.000153
H      -10.145817        -7.371037        -0.886547
H      -10.145813        -7.370977         0.886900
 

