%Mem=61440MB 
%NProc=8 

#P B3LYP/6-31G(d) Integral=Ultrafine SCF(Conver=8,XQC,MaxConventionalCycles=64,MaxCycle=128) NoSymm Test 
   Pop=mk IOp(6/33=2) GFInput GFPrint 

 MEP step - Input generated by PyRED DVE-DMDS-OPLS 

0 1 
C        2.427878        -5.466310        -5.977846
H        1.536914        -6.102036        -6.001945
H        2.576962        -5.038269        -6.975247
H        3.290436        -6.094916        -5.734626
C        2.267501        -4.362820        -4.945133
H        3.159909        -3.714903        -4.927431
H        1.407458        -3.723708        -5.201520
O        2.090659        -4.972330        -3.672493
C        1.994395        -4.066588        -2.588692
H        2.685166        -3.218196        -2.713560
H        2.295641        -4.613833        -1.689379
C        0.569099        -3.545825        -2.397962
H        0.225986        -2.998542        -3.291326
H       -0.114674        -4.396862        -2.248233
O        0.572890        -2.694422        -1.265911
C       -0.704929        -2.163293        -0.958424
H       -1.414877        -2.980907        -0.741328
H       -1.103141        -1.591325        -1.812465
C       -0.609027        -1.253719         0.258567
H       -0.085300        -1.781888         1.069971
H       -1.625738        -1.027797         0.599655
O        0.000000         0.000000         0.000000
C        1.422164        -0.000000        -0.000000
H        1.806913        -0.518157        -0.889797
H        1.801479        -0.530244         0.886574
C        1.917028         1.439925         0.000000
H        1.481444         1.990381        -0.841571
H        3.004161         1.439945        -0.134742
S        1.624393         2.386913         1.546315
C       -0.129409         2.909157         1.323537
H       -0.184533         3.500325         0.400174
H       -0.748889         2.019547         1.202719
C       -0.624740         3.770531         2.489339
H       -1.547626         4.269696         2.174031
H        0.091056         4.565086         2.728999
S       -1.105892         2.882610         4.027697
C        0.472957         2.788862         4.963337
H        1.256505         2.418915         4.294120
H        0.301252         2.010751         5.714167
C        0.924277         4.092772         5.631466
H        1.960212         3.984545         5.978563
H        0.919737         4.916785         4.910976
S       -0.096850         4.669291         7.043228
C        0.519856         3.554976         8.370976
H        0.332118         2.512459         8.090747
H        1.603504         3.688629         8.470706
C       -0.183361         3.879352         9.688779
H       -1.266158         3.739393         9.604434
H        0.183181         3.220460        10.484195
H        0.002897         4.914880         9.992598
 

