%Mem=61440MB 
%NProc=8 

#P B3LYP/6-31G(d) Integral=Ultrafine SCF(Conver=8,XQC,MaxConventionalCycles=64,MaxCycle=128) NoSymm Test 
   Pop=mk IOp(6/33=2) GFInput GFPrint 

 MEP step - Input generated by PyRED DVE-DMDS-OPLS 

0 1 
C        3.072487        -1.516456        -5.097354
H        4.071220        -1.085085        -5.230602
H        2.736649        -1.884349        -6.074420
H        2.394180        -0.719016        -4.775939
C        3.077971        -2.654925        -4.078288
H        2.077916        -3.096236        -4.008301
H        3.766135        -3.452548        -4.402554
O        3.395108        -2.246149        -2.753980
C        4.765603        -1.977255        -2.496468
H        5.400651        -2.315873        -3.328424
H        5.053466        -2.542722        -1.600753
C        5.024947        -0.499412        -2.238724
H        6.113049        -0.326841        -2.150805
H        4.657322         0.104153        -3.083613
O        4.361477        -0.137177        -1.045507
C        4.318641         1.255277        -0.795997
H        3.973848         1.798671        -1.690757
H        5.321765         1.637904        -0.534661
C        3.355707         1.521264         0.352505
H        3.453872         2.567463         0.663144
H        3.620054         0.883675         1.209403
O        1.993546         1.344376         0.000000
C        1.523212         0.000000        -0.000000
H        1.899488        -0.529590         0.887655
H        1.889215        -0.536601        -0.885176
C        0.000000         0.000000         0.000000
H       -0.343524        -1.026780        -0.165959
H       -0.381137         0.608637        -0.827429
S       -0.800792         0.556185         1.565799
C       -1.323013         2.273212         1.172499
H       -1.813761         2.263404         0.190336
H       -2.091665         2.498945         1.918221
C       -0.223540         3.338297         1.181551
H       -0.632053         4.293977         0.828294
H        0.577858         3.038105         0.504090
S        0.569875         3.635434         2.819245
C       -0.228196         5.210156         3.342183
H       -0.147173         5.937733         2.527309
H        0.390046         5.579578         4.165996
C       -1.675767         5.058805         3.811561
H       -2.316407         4.664822         3.016382
H       -1.727560         4.351660         4.644580
S       -2.406592         6.622268         4.455411
C       -2.787827         7.534506         2.901962
H       -2.978403         8.560148         3.235341
H       -1.890078         7.569768         2.275075
C       -3.986488         6.995718         2.121808
H       -4.890647         7.005029         2.738203
H       -4.168135         7.611114         1.231379
H       -3.821598         5.966913         1.783449
 

