%Mem=61440MB 
%NProc=8 

#P B3LYP/6-31G(d) Integral=Ultrafine SCF(Conver=8,XQC,MaxConventionalCycles=64,MaxCycle=128) NoSymm Test 
   Pop=mk IOp(6/33=2) GFInput GFPrint 

 MEP step - Input generated by PyRED DVE-DMDS-OPLS 

0 1 
C        9.001739         2.194547        -1.619582
H        8.273104         2.931824        -1.972151
H        9.168541         2.360102        -0.550287
H        9.946586         2.360661        -2.148440
C        8.495998         0.783317        -1.868594
H        8.336720         0.610947        -2.946320
H        9.236481         0.039760        -1.527138
O        7.276500         0.609048        -1.163515
C        6.720455        -0.684612        -1.317612
H        7.398589        -1.446393        -0.892038
H        6.575379        -0.922146        -2.383971
C        5.377414        -0.754741        -0.604053
H        5.065966        -1.804797        -0.554904
H        5.493932        -0.390158         0.427106
O        4.343277        -0.065568        -1.290020
C        4.207228         1.322090        -0.975175
H        3.749179         1.785322        -1.856084
H        5.191530         1.778976        -0.818479
C        3.311851         1.585891         0.233973
H        3.395124         2.647066         0.499636
H        3.654239         0.996829         1.101680
O        1.930728         1.362712         0.000000
C        1.525851        -0.000000        -0.000000
H        1.908503        -0.509184         0.900472
H        1.916125        -0.533247        -0.874221
C        0.000000         0.000000         0.000000
H       -0.365944         0.476138        -0.915972
H       -0.360073         0.574176         0.858850
S       -0.615968        -1.731202         0.067229
C       -2.394228        -1.473763        -0.324849
H       -2.482242        -0.874191        -1.236680
H       -2.771338        -2.475201        -0.553220
C       -3.190681        -0.843786         0.818870
H       -2.782239         0.140018         1.070164
H       -3.127330        -1.460298         1.721359
S       -4.960055        -0.506853         0.437069
C       -5.722455        -2.185419         0.534381
H       -6.720442        -2.031738         0.954942
H       -5.159689        -2.781929         1.258500
C       -5.840575        -2.894851        -0.818115
H       -6.383566        -2.256229        -1.520864
H       -4.859538        -3.093225        -1.260881
S       -6.780770        -4.480219        -0.743434
C       -5.443006        -5.733132        -0.576052
H       -5.954136        -6.682077        -0.771979
H       -4.726974        -5.584328        -1.392494
C       -4.733302        -5.785432         0.776155
H       -4.023381        -6.622130         0.797251
H       -4.165630        -4.869554         0.971902
H       -5.449972        -5.921245         1.592162
 

