%Mem=61440MB 
%NProc=8 

#P B3LYP/6-31G(d) Integral=Ultrafine SCF(Conver=8,XQC,MaxConventionalCycles=64,MaxCycle=128) NoSymm Test 
   Pop=mk IOp(6/33=2) GFInput GFPrint 

 MEP step - Input generated by PyRED DVE-DMDS-OPLS 

0 1 
C        4.730977         7.725266         2.715669
H        5.811475         7.771128         2.541527
H        4.233044         8.320921         1.943212
H        4.532296         8.187546         3.689708
C        4.207630         6.289701         2.699945
H        4.716323         5.686786         3.470214
H        3.136502         6.280798         2.927636
O        4.323930         5.653462         1.432694
C        5.638018         5.247206         1.090783
H        6.084328         4.654271         1.906180
H        6.291252         6.117777         0.911278
C        5.597295         4.404442        -0.177475
H        5.024025         4.939326        -0.951037
H        6.625232         4.280829        -0.538985
O        5.093285         3.094552         0.007828
C        3.677101         2.978154         0.008116
H        3.246669         3.458346        -0.884787
H        3.231783         3.453114         0.889322
C        3.360975         1.489572        -0.006753
H        3.809311         1.004591         0.875564
H        3.800592         1.021608        -0.902095
O        1.951013         1.349324        -0.000000
C        1.525136        -0.000000        -0.000000
H        1.914720        -0.526832         0.887316
H        1.902597        -0.532796        -0.887393
C        0.000000         0.000000         0.000000
H       -0.370701         0.474213        -0.913624
H       -0.377992         0.585828         0.843675
S       -0.721492        -1.687327         0.024111
C       -0.625755        -2.104986         1.816923
H       -0.702691        -3.195772         1.850797
H        0.359691        -1.837512         2.209439
C       -1.736802        -1.456762         2.643986
H       -2.721837        -1.762607         2.277197
H       -1.687650        -0.366275         2.561507
S       -1.638154        -1.773997         4.454905
C       -2.229486        -3.517366         4.591075
H       -2.918056        -3.708591         3.761567
H       -2.814975        -3.565533         5.513572
C       -1.103816        -4.553560         4.642939
H       -0.491338        -4.528501         3.735660
H       -0.438146        -4.338563         5.484229
S       -1.694729        -6.272149         4.920821
C       -2.370050        -6.687454         3.259206
H       -3.209598        -6.024386         3.025084
H       -1.585163        -6.520779         2.512257
C       -2.828674        -8.145416         3.237159
H       -1.997480        -8.825240         3.451060
H       -3.614931        -8.325073         3.978004
H       -3.230429        -8.397906         2.249390
 

