%Mem=61440MB 
%NProc=8 

#P B3LYP/6-31G(d) Integral=Ultrafine SCF(Conver=8,XQC,MaxConventionalCycles=64,MaxCycle=128) NoSymm Test 
   Pop=mk IOp(6/33=2) GFInput GFPrint 

 MEP step - Input generated by PyRED DVE-DMDS-OPLS 

0 1 
C        7.839157         1.753166         7.115519
H        8.040929         0.871821         7.734257
H        8.641354         1.850541         6.376879
H        7.854086         2.640827         7.755987
C        6.491825         1.619949         6.424836
H        6.475897         0.717620         5.792727
H        5.684019         1.510156         7.167731
O        6.276046         2.791932         5.649293
C        5.022742         2.845500         4.991941
H        4.798650         3.903490         4.820341
H        4.221399         2.429840         5.621997
C        5.046694         2.118593         3.646550
H        5.825509         2.559475         3.003985
H        5.292222         1.051845         3.780037
O        3.764317         2.261796         3.063646
C        3.648974         1.651592         1.793157
H        3.845862         0.567811         1.860314
H        4.374454         2.074493         1.079957
C        2.229988         1.902541         1.286453
H        2.062436         2.980001         1.188363
H        1.504607         1.517585         2.016875
O        2.045197         1.326640         0.000000
C        1.532058         0.000000         0.000000
H        1.907261        -0.579080         0.855230
H        1.910940        -0.475427        -0.910879
C        0.000000        -0.000000         0.000000
H       -0.375344         0.608250        -0.828880
H       -0.383932         0.443482         0.924557
S       -0.721284        -1.688864        -0.069387
C       -0.611473        -2.064541        -1.870554
H        0.376581        -1.789106        -2.250217
H       -0.686903        -3.154517        -1.931657
C       -1.714182        -1.396813        -2.693331
H       -1.637658        -0.306942        -2.631462
H       -2.702393        -1.669963        -2.311750
S       -1.607532        -1.770514        -4.494168
C       -2.302090        -3.476541        -4.566421
H       -1.862336        -4.089111        -3.773615
H       -1.947840        -3.886640        -5.515832
C       -3.830529        -3.511118        -4.494804
H       -4.178256        -3.065553        -3.557896
H       -4.272343        -2.929603        -5.310101
S       -4.534267        -5.216054        -4.527635
C       -4.958042        -5.434460        -6.305492
H       -5.570020        -6.343084        -6.312987
H       -5.611426        -4.608126        -6.607621
C       -3.778624        -5.582112        -7.265519
H       -3.184551        -4.663814        -7.320792
H       -3.117853        -6.397906        -6.955889
H       -4.142610        -5.798510        -8.278055
 

