%Mem=61440MB 
%NProc=8 

#P B3LYP/6-31G(d) Integral=Ultrafine SCF(Conver=8,XQC,MaxConventionalCycles=64,MaxCycle=128) NoSymm Test 
   Pop=mk IOp(6/33=2) GFInput GFPrint 

 MEP step - Input generated by PyRED DVE-DMDS-OPLS 

0 1 
C        7.108677        -1.261530        -3.771649
H        7.448721        -0.369627        -4.308455
H        7.153694        -1.052267        -2.697822
H        7.811250        -2.072929        -3.995380
C        5.692427        -1.667793        -4.174973
H        5.644265        -1.882192        -5.255325
H        5.400551        -2.581159        -3.645459
O        4.703423        -0.703252        -3.831131
C        4.635729         0.411414        -4.705639
H        4.395924         0.073862        -5.730052
H        5.590167         0.956638        -4.744295
C        3.548947         1.364010        -4.225099
H        3.346566         2.089112        -5.022298
H        2.625204         0.794589        -4.043201
O        3.927690         2.124997        -3.088706
C        3.697187         1.506123        -1.824613
H        4.454554         1.897605        -1.137504
H        3.828402         0.420784        -1.886803
C        2.307318         1.870975        -1.291465
H        1.526466         1.554854        -1.999771
H        2.233727         2.958249        -1.186309
O        2.092540         1.309493         0.000000
C        1.531154         0.000000        -0.000000
H        1.901527        -0.496691         0.902213
H        1.890017        -0.570037        -0.871735
C        0.000000         0.000000         0.000000
H       -0.355227        -1.022831        -0.172971
H       -0.386729         0.610548        -0.824599
S       -0.806477         0.486546         1.578143
C       -0.506397         2.300227         1.635647
H       -0.638274         2.573395         2.687559
H        0.540321         2.476628         1.374140
C       -1.421234         3.142621         0.741111
H       -1.422902         2.757088        -0.283280
H       -1.039248         4.169638         0.688392
S       -3.189949         3.197359         1.242424
C       -3.134953         4.458957         2.578996
H       -2.268615         4.267715         3.221635
H       -4.028297         4.281077         3.185224
C       -3.126792         5.895421         2.056410
H       -2.265508         6.061066         1.401634
H       -4.036921         6.087462         1.478774
S       -3.057284         7.061888         3.482705
C       -3.308937         8.669001         2.624673
H       -4.231873         8.607385         2.036397
H       -3.493715         9.381054         3.436127
C       -2.135567         9.133804         1.762701
H       -1.220229         9.214807         2.357298
H       -1.942370         8.442159         0.935833
H       -2.352261        10.117372         1.326878
 

