%Mem=61440MB 
%NProc=8 

#P B3LYP/6-31G(d) Integral=Ultrafine SCF(Conver=8,XQC,MaxConventionalCycles=64,MaxCycle=128) NoSymm Test 
   Pop=mk IOp(6/33=2) GFInput GFPrint 

 MEP step - Input generated by PyRED DVE-DMDS-OPLS 

0 1 
C       -7.981159        -5.090343        -0.000032
H       -8.446806        -6.081996        -0.000015
H       -8.321309        -4.546284         0.887032
H       -8.321274        -4.546332        -0.887138
C       -6.466489        -5.215219         0.000002
H       -6.122543        -5.773902         0.887318
H       -6.122507        -5.773945        -0.887274
O       -5.908351        -3.911525        -0.000018
C       -4.495695        -3.909984         0.000004
H       -4.095633        -4.424899        -0.888902
H       -4.095661        -4.424871         0.888940
C       -4.038913        -2.458374        -0.000013
H       -4.436316        -1.943125        -0.889083
H       -4.436338        -1.943098         0.889033
O       -2.623879        -2.454596         0.000004
C       -2.069866        -1.153953        -0.000008
H       -2.388291        -0.586255         0.889068
H       -2.388279        -0.586279        -0.889104
C       -0.555344        -1.302212         0.000005
H       -0.236827        -1.869430        -0.889193
H       -0.236841        -1.869417         0.889215
O        0.000000        -0.000000         0.000000
C        1.415983        -0.000000         0.000000
H        1.803327        -0.523543        -0.889169
H        1.803327        -0.523545         0.889168
C        1.868564         1.455873         0.000000
H        1.475152         1.960033         0.888790
H        1.475144         1.960037        -0.888784
S        3.702827         1.537580        -0.000007
C        3.908520         3.365643        -0.000001
H        3.422208         3.781953        -0.888490
H        3.422238         3.781943         0.888508
C        5.397800         3.705664        -0.000024
H        5.883644         3.288830        -0.888603
H        5.883675         3.288818         0.888532
S        5.603562         5.534048        -0.000014
C        7.441673         5.622589        -0.000064
H        7.826038         5.110703        -0.888614
H        7.826087         5.110688         0.888456
C        7.877958         7.086680        -0.000064
H        7.491559         7.598164        -0.888328
H        7.491612         7.598149         0.888232
S        9.714859         7.176203        -0.000119
C        9.929290         9.002563        -0.000112
H        9.435745         9.416104        -0.886903
H        9.435804         9.416089         0.886719
C       11.416140         9.356020        -0.000157
H       11.542717        10.444518        -0.000153
H       11.919152         8.956237         0.886547
H       11.919094         8.956252        -0.886900
 

