%Mem=61440MB 
%NProc=8 

#P B3LYP/6-31G(d) Integral=Ultrafine SCF(Conver=8,XQC,MaxConventionalCycles=64,MaxCycle=128) NoSymm Test 
   Pop=mk IOp(6/33=2) GFInput GFPrint 

 MEP step - Input generated by PyRED DVE-DMDS-OPLS 

0 1 
C       -2.811252        -6.541254         1.619582
H       -3.310476        -5.632815         1.972151
H       -3.017457        -6.653997         0.550287
H       -3.239585        -7.399660         2.148440
C       -1.314430        -6.458386         1.868594
H       -1.103835        -6.354796         2.946320
H       -0.812561        -7.379971         1.527138
O       -0.800057        -5.339026         1.163515
C        0.598391        -5.174452         1.317612
H        1.135486        -6.041461         0.892038
H        0.867406        -5.103035         2.383971
C        1.048121        -3.907005         0.604053
H        2.143392        -3.907518         0.554904
H        0.665452        -3.914862        -0.427106
O        0.682019        -2.719417         1.290020
C       -0.609422        -2.193789         0.975175
H       -0.923014        -1.622778         1.856084
H       -1.327721        -3.007202         0.818479
C       -0.607288        -1.260361        -0.233973
H       -1.648232        -1.037956        -0.499636
H       -0.140136        -1.756338        -1.101680
O        0.000000        -0.000000         0.000000
C        1.421586         0.000000         0.000000
H        1.800702        -0.511823        -0.900472
H        1.821597        -0.525982         0.874221
C        1.856158         1.462658        -0.000000
H        1.503963         1.949054         0.915972
H        1.408313         1.971348        -0.858850
S        3.691094         1.560059        -0.067229
C        3.950777         3.337993         0.324849
H        3.401102         3.593124         1.236680
H        5.018143         3.414269         0.553220
C        3.573724         4.280883        -0.818870
H        2.514338         4.169550        -1.070164
H        4.146661         4.044569        -1.721359
S        3.754674         6.072939        -0.437069
C        5.580858         6.325698        -0.534381
H        5.717775         7.326123        -0.954942
H        5.992384         5.616349        -1.258500
C        6.294551         6.236876         0.818115
H        5.837025         6.939262         1.520864
H        6.205304         5.239970         1.260881
S        8.082034         6.686610         0.743434
C        8.902055         5.047412         0.576052
H        9.957272         5.267108         0.771979
H        8.555483         4.403415         1.392494
C        8.750061         4.352205        -0.776155
H        9.349918         3.433388        -0.797251
H        7.710437         4.068891        -0.971902
H        9.084361         5.000514        -1.592162
 

