%chk=nitrobenzene_sdf_020_gaussian.chk
%nproc=4
%mem=4000Mb
#p 6-31g* mp2

Conformer number 020. Energy MM = 49.472 kcal/mol

0 1
O  2.8340    -1.2685    -0.3212
N  2.3386    -0.1729    -0.0201
O  2.9948    0.8376    0.2712
C  0.8748    -0.0647    -0.0075
C  0.2716    1.1554    0.3272
C  0.0932    -1.1824    -0.3303
C  -1.1209    1.2522    0.3374
C  -1.9024    0.1406    0.0163
C  -1.2985    -1.0733    -0.3166
H  0.8663    2.0307    0.5798
H  0.5483    -2.1353    -0.5919
H  -1.5986    2.1948    0.5959
H  -2.9874    0.2208    0.0257
H  -1.9139    -1.9351    -0.5657
