%chk=PET_031_gaussian.chk
%nproc=4
%mem=4000Mb
#p 6-31g* mp2

Conformer number 031. Energy MM = 73.123 kcal/mol

0 1
C  -0.7141    2.2403    2.2978
C  -3.0296    0.3989    -0.1067
H  -3.0539    0.1248    -1.1591
C  -1.9271    1.1129    0.3790
H  -1.1262    1.3719    -0.3099
C  -1.8629    1.4825    1.7298
C  -2.9121    1.1290    2.5885
H  -2.8781    1.4064    3.6412
C  -4.0132    0.4158    2.1032
H  -4.8192    0.1497    2.7858
C  -4.0794    0.0464    0.7530
O  -6.1957    -1.0279    1.0240
C  -5.2739    -0.7123    0.2891
O  -5.1761    -0.9907    -1.0345
O  0.1944    2.5222    1.3327
O  -0.6279    2.5545    3.4737
C  -6.2747    -1.7213    -1.6004
H  -7.2303    -1.4045    -1.1669
H  -6.3076    -1.4738    -2.6665
C  -6.0539    -3.2125    -1.4296
H  -6.8558    -3.7808    -1.9093
H  -6.0175    -3.4855    -0.3702
H  -5.0967    -3.5121    -1.8687
C  5.5968    -3.1378    -1.8709
C  5.3368    -0.1987    0.4738
H  5.8608    0.1714    1.3540
C  5.7666    -1.3841    -0.1311
H  6.6183    -1.9201    0.2851
C  5.1058    -1.8771    -1.2628
C  4.0118    -1.1757    -1.7852
H  3.4862    -1.5433    -2.6639
C  3.5815    0.0109    -1.1797
H  2.7296    0.5365    -1.6047
C  4.2423    0.5060    -0.0465
O  4.3835    2.2089    1.6256
C  3.8256    1.7609    0.6371
O  2.7554    2.3128    0.0145
O  4.8806    -3.5112    -2.9458
O  6.5396    -3.7987    -1.4776
C  2.2559    3.5278    0.6059
H  3.0856    4.1874    0.8848
H  1.6794    4.0333    -0.1762
C  1.3569    3.2281    1.8025
H  1.0457    4.1700    2.2679
H  1.8762    2.6019    2.5356
H  5.3108    -4.3432    -3.2361

