%chk=PET_034_gaussian.chk
%nproc=4
%mem=4000Mb
#p 6-31g* mp2

Conformer number 034. Energy MM = 71.272 kcal/mol

0 1
C  -0.6242    0.5362    3.2637
C  -2.9938    0.2655    0.2899
H  -3.0364    0.5960    -0.7457
C  -1.8773    0.6094    1.0621
H  -1.0847    1.1968    0.6037
C  -1.7894    0.2008    2.4002
C  -2.8297    -0.5552    2.9566
H  -2.7784    -0.8816    3.9944
C  -3.9449    -0.8986    2.1852
H  -4.7440    -1.4866    2.6346
C  -4.0341    -0.4907    0.8474
O  -6.1588    -1.5412    0.5387
C  -5.2426    -0.8838    0.0714
O  -5.1691    -0.4125    -1.1979
O  0.2816    1.2739    2.5771
O  -0.5185    0.1778    4.4255
C  -6.2975    -0.7487    -2.0148
H  -7.2098    -0.3294    -1.5759
H  -6.3893    -1.8381    -2.0884
C  -6.0745    -0.1590    -3.3937
H  -5.1538    -0.5526    -3.8369
H  -6.9128    -0.3896    -4.0570
H  -5.9593    0.9283    -3.3338
C  5.1740    -0.9860    -3.8331
C  3.5255    -0.7516    -0.4500
H  2.7686    -1.3052    0.1012
C  3.8718    -1.1809    -1.7360
H  3.3808    -2.0561    -2.1591
C  4.8428    -0.4922    -2.4743
C  5.4668    0.6307    -1.9178
H  6.2236    1.1796    -2.4740
C  5.1204    1.0602    -0.6321
H  5.6138    1.9354    -0.2115
C  4.1488    0.3727    0.1092
O  4.3343    1.8622    1.9700
C  3.8170    0.8762    1.4702
O  2.8711    0.0983    2.0495
O  6.1235    -0.2514    -4.4378
O  4.6686    -1.9464    -4.3834
C  2.4627    0.4969    3.3728
H  3.3372    0.7627    3.9780
H  2.0084    -0.3879    3.8288
C  1.4618    1.6510    3.3131
H  1.8884    2.5078    2.7827
H  1.1915    1.9925    4.3190
H  6.2401    -0.6859    -5.3089

