%chk=IsoP_rdkit_03_433_gaussian.chk
%nproc=6
%mem=4000Mb
#p opt=loose m062x/6-31g(d,p)

Conformer number 433. Energy MM = 23.287 kcal/mol

0 1
C  -0.8108    0.5387    0.2437
H  -0.2651    1.4593    -0.0036
H  -1.1471    0.6805    1.2778
C  -1.9962    0.4040    -0.6899
C  -1.7483    0.8627    -2.1043
H  -1.4601    1.9189    -2.1158
H  -0.9446    0.2772    -2.5618
H  -2.6360    0.7553    -2.7367
C  -3.2070    -0.0604    -0.3228
H  -4.0001    -0.0945    -1.0694
C  -3.6169    -0.5745    1.0208
H  -2.7833    -0.6845    1.7178
H  -4.3552    0.0987    1.4669
H  -4.0794    -1.5605    0.9081
C  3.6090    -0.1269    1.8994
H  4.4264    -0.8194    1.6733
H  4.0199    0.8853    1.9733
H  3.2086    -0.3956    2.8826
C  2.5614    -0.1878    0.8185
C  3.0668    0.1644    -0.5534
H  3.5811    1.1313    -0.5275
H  3.7766    -0.5939    -0.8991
H  2.2735    0.2491    -1.2996
C  1.2901    -0.5238    1.1124
H  1.0371    -0.7414    2.1503
C  0.1327    -0.6653    0.1600
H  0.4770    -0.8149    -0.8681
H  -0.4101    -1.5821    0.4244

