%chk=IsoP_rdkit_03_271_gaussian.chk
%nproc=6
%mem=4000Mb
#p opt=loose m062x/6-31g(d,p)

Conformer number 271. Energy MM = 23.242 kcal/mol

0 1
C  -0.6752    0.8470    -0.3825
H  -0.4356    1.7312    -0.9885
H  -0.5007    1.1608    0.6536
C  -2.1312    0.4852    -0.5916
C  -2.6458    0.6923    -1.9930
H  -2.5410    1.7424    -2.2846
H  -2.0842    0.0758    -2.7019
H  -3.7037    0.4261    -2.0900
C  -2.9495    0.0318    0.3787
H  -3.9889    -0.1783    0.1282
C  -2.6000    -0.2525    1.8053
H  -3.1221    0.4492    2.4627
H  -2.9226    -1.2662    2.0643
H  -1.5295    -0.1894    2.0127
C  3.9560    0.1630    0.5054
H  4.6224    -0.7056    0.5251
H  4.1462    0.7686    1.3976
H  4.2227    0.7662    -0.3688
C  2.5180    -0.2849    0.4749
C  2.1066    -1.1250    1.6524
H  2.3593    -0.6118    2.5866
H  2.6342    -2.0841    1.6329
H  1.0344    -1.3309    1.6857
C  1.7076    0.0755    -0.5395
H  2.1150    0.7047    -1.3310
C  0.2658    -0.3067    -0.7438
H  0.1384    -0.5800    -1.7989
H  0.0035    -1.2045    -0.1746

