%chk=IsoP_rdkit_03_076_gaussian.chk
%nproc=6
%mem=4000Mb
#p opt=loose m062x/6-31g(d,p)

Conformer number 076. Energy MM = 23.486 kcal/mol

0 1
C  -1.1041    1.1861    0.3834
H  -1.1185    0.6654    1.3472
H  -1.6051    2.1439    0.5783
C  -1.9121    0.4384    -0.6612
C  -2.3783    1.2746    -1.8265
H  -2.9763    2.1205    -1.4719
H  -1.5232    1.6628    -2.3882
H  -2.9987    0.7033    -2.5252
C  -2.2448    -0.8659    -0.5865
H  -2.8489    -1.2943    -1.3859
C  -1.8673    -1.8520    0.4736
H  -1.3883    -2.7202    0.0093
H  -2.7659    -2.1974    0.9938
H  -1.1734    -1.4558    1.2172
C  2.8644    -1.5105    0.4037
H  3.9400    -1.3059    0.3941
H  2.6617    -2.2758    1.1600
H  2.5972    -1.9292    -0.5723
C  2.0980    -0.2517    0.7162
C  2.4361    0.3646    2.0451
H  3.4670    0.7332    2.0376
H  2.3435    -0.3830    2.8404
H  1.7828    1.1967    2.3167
C  1.1862    0.2279    -0.1520
H  1.0124    -0.3220    -1.0775
C  0.3495    1.4732    -0.0208
H  0.3797    2.0083    -0.9779
H  0.7863    2.1649    0.7067

