%chk=IsoP_00045_gaussian.chk
%nproc=4
%mem=4000Mb
#p 6-31g* mp2

Conformer number 00045. Energy MM = 23.759 kcal/mol

0 1
C  0.8470    0.1255    0.6484
H  0.8156    1.0552    0.0644
H  1.0885    0.4290    1.6755
C  1.9511    -0.7811    0.1304
C  2.3080    -1.9332    1.0312
H  3.2527    -2.4123    0.7645
H  2.4165    -1.5859    2.0644
H  1.5236    -2.6959    1.0042
C  2.5567    -0.5082    -1.0427
H  2.2310    0.3694    -1.6014
C  3.6413    -1.2816    -1.7228
H  4.5645    -0.6944    -1.7347
H  3.8509    -2.2461    -1.2566
H  3.3513    -1.4792    -2.7600
C  -2.6053    1.0476    -1.1280
H  -1.7718    0.5281    -1.6061
H  -3.5334    0.5618    -1.4460
H  -2.6029    2.0724    -1.5150
C  -2.5181    1.0631    0.3733
C  -3.5517    1.9295    1.0447
H  -3.4639    1.9121    2.1361
H  -3.4449    2.9694    0.7192
H  -4.5587    1.5853    0.7872
C  -1.6077    0.3894    1.1032
H  -1.6328    0.4938    2.1881
C  -0.5334    -0.5402    0.6041
H  -0.7480    -0.9002    -0.4073
H  -0.5438    -1.4316    1.2437


