%chk=IsoP_00043_gaussian.chk
%nproc=4
%mem=4000Mb
#p 6-31g* mp2

Conformer number 00043. Energy MM = 24.629 kcal/mol

0 1
C  1.0624    -0.4981    1.4804
H  1.9209    -0.2053    2.1003
H  0.6840    -1.4231    1.9344
C  1.5436    -0.7839    0.0672
C  0.6199    -1.6094    -0.7874
H  1.1529    -2.1616    -1.5665
H  0.1020    -2.3612    -0.1822
H  -0.1284    -0.9749    -1.2694
C  2.7525    -0.3459    -0.3392
H  3.3647    0.2200    0.3623
C  3.3783    -0.5145    -1.6874
H  2.6925    -0.9117    -2.4390
H  4.2419    -1.1825    -1.6160
H  3.7289    0.4573    -2.0500
C  -3.5582    0.0994    0.0434
H  -3.8096    -0.6629    0.7883
H  -3.6543    -0.3592    -0.9463
H  -4.2969    0.9031    0.1286
C  -2.1674    0.6481    0.2313
C  -1.7831    1.7031    -0.7692
H  -2.4230    2.5837    -0.6506
H  -1.9118    1.3189    -1.7869
H  -0.7459    2.0319    -0.6829
C  -1.3780    0.1873    1.2216
H  -1.7770    -0.5864    1.8782
C  0.0180    0.6248    1.5808
H  0.3489    1.4948    1.0068
H  -0.0187    0.9582    2.6264


