%chk=IsoP_00002_gaussian.chk
%nproc=4
%mem=4000Mb
#p 6-31g* mp2

Conformer number 00002. Energy MM = 24.029 kcal/mol

0 1
C  0.3483    -1.3346    0.1624
H  0.4220    -2.3498    -0.2478
H  -0.1353    -1.4643    1.1397
C  1.7446    -0.7747    0.3552
C  1.9577    0.0020    1.6296
H  2.9886    0.3581    1.7296
H  1.7422    -0.6293    2.4980
H  1.3035    0.8776    1.6659
C  2.7648    -0.9705    -0.5040
H  3.7379    -0.5428    -0.2642
C  2.7334    -1.7209    -1.7977
H  3.0507    -1.0616    -2.6118
H  1.7450    -2.1103    -2.0515
H  3.4288    -2.5647    -1.7517
C  -2.3014    2.5795    0.9328
H  -3.2023    2.9965    0.4711
H  -1.4653    3.2433    0.6888
H  -2.4291    2.5921    2.0202
C  -2.0735    1.1709    0.4502
C  -3.1979    0.2208    0.7562
H  -2.9639    -0.8188    0.5151
H  -3.4365    0.2526    1.8248
H  -4.0938    0.5043    0.1946
C  -0.9329    0.8393    -0.1856
H  -0.1778    1.6109    -0.3369
C  -0.5552    -0.5010    -0.7577
H  -1.4514    -1.0846    -0.9948
H  -0.0603    -0.3324    -1.7224


