%chk=IsoP_00012_gaussian.chk
%nproc=4
%mem=4000Mb
#p 6-31g* mp2

Conformer number 00012. Energy MM = 23.287 kcal/mol

0 1
C  0.9499    0.1745    0.1118
H  0.8627    0.8878    0.9425
H  1.2681    0.7794    -0.7457
C  2.0034    -0.8573    0.4582
C  2.0391    -1.2694    1.9079
H  2.2319    -0.4000    2.5449
H  1.0833    -1.7130    2.2038
H  2.8223    -2.0077    2.1100
C  2.8810    -1.3766    -0.4230
H  3.6153    -2.0972    -0.0639
C  2.9710    -1.0998    -1.8904
H  2.9710    -2.0464    -2.4404
H  3.9058    -0.5766    -2.1132
H  2.1405    -0.5020    -2.2724
C  -3.3978    2.0824    -0.3095
H  -4.4221    1.6999    -0.2517
H  -3.3383    3.0089    0.2708
H  -3.1952    2.3322    -1.3563
C  -2.4303    1.0630    0.2333
C  -2.6746    0.6803    1.6670
H  -2.7258    1.5784    2.2921
H  -1.8892    0.0479    2.0871
H  -3.6248    0.1439    1.7566
C  -1.4400    0.5763    -0.5399
H  -1.3510    0.9438    -1.5624
C  -0.4138    -0.4627    -0.1738
H  -0.7428    -1.0673    0.6772
H  -0.3283    -1.1621    -1.0156


