%chk=IsoP_00009_gaussian.chk
%nproc=4
%mem=4000Mb
#p 6-31g* mp2

Conformer number 00009. Energy MM = 23.486 kcal/mol

0 1
C  1.3074    0.2898    0.9901
H  1.3460    1.1344    0.2935
H  1.9878    0.5713    1.8050
C  1.8411    -0.9789    0.3509
C  2.3032    -2.0369    1.3213
H  1.4680    -2.3869    1.9357
H  2.7259    -2.9101    0.8129
H  3.0780    -1.6343    1.9819
C  1.9473    -1.1843    -0.9773
H  2.3669    -2.1279    -1.3249
C  1.5330    -0.2682    -2.0853
H  2.4132    0.0423    -2.6566
H  1.0133    0.6291    -1.7446
H  0.8575    -0.7995    -2.7637
C  -2.0968    2.2964    0.3946
H  -1.2803    2.6076    1.0499
H  -2.0416    2.9257    -0.5004
H  -3.0406    2.5087    0.9070
C  -2.0334    0.8448    0.0088
C  -3.0398    0.4362    -1.0350
H  -4.0564    0.6245    -0.6745
H  -2.9690    -0.6269    -1.2882
H  -2.8848    1.0079    -1.9559
C  -1.1625    -0.0536    0.5087
H  -1.1997    -1.0764    0.1323
C  -0.1114    0.1655    1.5647
H  -0.3302    1.0601    2.1567
H  -0.1621    -0.6676    2.2764


