%chk=IsoP_00036_gaussian.chk
%nproc=4
%mem=4000Mb
#p 6-31g* mp2

Conformer number 00036. Energy MM = 24.539 kcal/mol

0 1
C  0.6210    -0.3699    0.7749
H  0.8899    0.0695    1.7454
H  -0.1272    -1.1480    0.9798
C  1.8653    -1.0572    0.2200
C  2.4159    -2.0969    1.1659
H  1.6320    -2.8142    1.4326
H  2.7702    -1.6174    2.0845
H  3.2440    -2.6758    0.7536
C  2.4070    -0.7707    -0.9816
H  1.9394    -0.0152    -1.6095
C  3.6289    -1.3604    -1.6147
H  3.3449    -1.9312    -2.5042
H  4.2000    -2.0154    -0.9554
H  4.2992    -0.5539    -1.9298
C  -3.5843    1.8492    1.1741
H  -4.2259    2.4254    0.4994
H  -3.1528    2.5476    1.8989
H  -4.2083    1.1396    1.7273
C  -2.5292    1.1149    0.3884
C  -3.0750    0.1499    -0.6278
H  -3.5952    0.6945    -1.4223
H  -2.3066    -0.4721    -1.0924
H  -3.7890    -0.5317    -0.1529
C  -1.2208    1.3334    0.6248
H  -0.9462    2.0466    1.4024
C  -0.0410    0.7185    -0.0825
H  0.6773    1.5227    -0.2865
H  -0.3301    0.3136    -1.0574


