%chk=IsoP_00000_gaussian.chk
%nproc=4
%mem=4000Mb
#p 6-31g* mp2

Conformer number 00000. Energy MM = 24.029 kcal/mol

0 1
C  0.4291    -1.1095    -0.5862
H  -0.3123    -1.7621    -0.1064
H  0.7119    -1.6391    -1.5048
C  1.6480    -0.9800    0.3071
C  1.3991    -1.2137    1.7756
H  0.6896    -0.4816    2.1714
H  0.9893    -2.2166    1.9349
H  2.3168    -1.1354    2.3683
C  2.8922    -0.7198    -0.1417
H  3.7066    -0.6672    0.5803
C  3.3172    -0.4770    -1.5553
H  4.0382    -1.2418    -1.8603
H  3.8049    0.5001    -1.6290
H  2.4891    -0.4896    -2.2674
C  -3.2543    0.1624    -0.1847
H  -2.8679    -0.5127    -0.9518
H  -3.8047    -0.4551    0.5334
H  -3.9615    0.8477    -0.6630
C  -2.1784    0.9397    0.5216
C  -2.6640    1.7450    1.6982
H  -3.4178    2.4704    1.3749
H  -1.8552    2.3007    2.1843
H  -3.1130    1.0868    2.4492
C  -0.8749    0.9398    0.1808
H  -0.1804    1.5301    0.7788
C  -0.2261    0.2240    -0.9737
H  -0.9545    0.0403    -1.7710
H  0.5188    0.8970    -1.4167


