%chk=IsoP_00044_gaussian.chk
%nproc=4
%mem=4000Mb
#p 6-31g* mp2

Conformer number 00044. Energy MM = 25.397 kcal/mol

0 1
C  0.7859    -0.8856    1.6088
H  1.4324    -0.7377    2.4846
H  0.3269    -1.8763    1.7321
C  1.6957    -0.9366    0.3850
C  2.6178    -2.1314    0.4009
H  3.1433    -2.1873    1.3607
H  3.3867    -2.1043    -0.3736
H  2.0405    -3.0526    0.2708
C  1.6898    -0.0102    -0.5945
H  1.0110    0.8361    -0.5191
C  2.5092    0.0221    -1.8463
H  3.0527    -0.9034    -2.0432
H  3.2294    0.8445    -1.7973
H  1.8522    0.1978    -2.7046
C  -3.1854    0.3316    -1.0114
H  -4.1102    0.8709    -0.7815
H  -2.9200    0.5243    -2.0561
H  -3.3924    -0.7393    -0.9139
C  -2.0750    0.7869    -0.0997
C  -1.7525    2.2513    -0.2100
H  -1.0087    2.5909    0.5133
H  -2.6557    2.8482    -0.0436
H  -1.3706    2.4770    -1.2111
C  -1.4644    -0.0887    0.7232
H  -1.8116    -1.1224    0.7173
C  -0.3332    0.1714    1.6856
H  -0.7583    0.1323    2.6968
H  0.0986    1.1695    1.5764


