%chk=IsoP_00023_gaussian.chk
%nproc=4
%mem=4000Mb
#p 6-31g* mp2

Conformer number 00023. Energy MM = 24.539 kcal/mol

0 1
C  0.6228    -0.3674    0.7745
H  0.4037    -0.9743    1.6640
H  0.7234    0.6705    1.1205
C  1.9803    -0.8112    0.2373
C  3.0730    -0.6929    1.2721
H  2.8814    -1.3836    2.0999
H  3.1008    0.3260    1.6736
H  4.0717    -0.9058    0.8872
C  2.1803    -1.2536    -1.0212
H  1.3393    -1.2957    -1.7103
C  3.4535    -1.7323    -1.6470
H  4.2824    -1.8368    -0.9456
H  3.2874    -2.7148    -2.1010
H  3.7584    -1.0409    -2.4386
C  -2.0699    2.3022    -0.4584
H  -2.0367    3.2187    0.1406
H  -2.7740    2.4551    -1.2827
H  -1.0737    2.1688    -0.8861
C  -2.5147    1.1452    0.3932
C  -3.7999    1.3856    1.1419
H  -4.0977    0.5218    1.7456
H  -4.6131    1.5959    0.4395
H  -3.6919    2.2412    1.8166
C  -1.8535    -0.0218    0.5213
H  -2.2667    -0.7819    1.1848
C  -0.5839    -0.4429    -0.1722
H  -0.7238    -1.4747    -0.5187
H  -0.4039    0.1580    -1.0690


