%chk=IsoP_00013_gaussian.chk
%nproc=4
%mem=4000Mb
#p 6-31g* mp2

Conformer number 00013. Energy MM = 24.539 kcal/mol

0 1
C  0.4727    -0.6888    0.6438
H  0.0947    -1.6403    1.0425
H  0.4240    0.0372    1.4670
C  1.9430    -0.8900    0.2888
C  2.7587    -1.3597    1.4690
H  3.8307    -1.4141    1.2722
H  2.4269    -2.3555    1.7811
H  2.6277    -0.6733    2.3127
C  2.4549    -0.6677    -0.9392
H  1.7993    -0.3163    -1.7333
C  3.8660    -0.8507    -1.4052
H  4.2994    0.1211    -1.6606
H  3.8723    -1.4717    -2.3071
H  4.5166    -1.3348    -0.6756
C  -4.0195    0.9133    0.7894
H  -4.6614    1.4888    0.1144
H  -4.3918    -0.1165    0.8038
H  -4.1249    1.3189    1.8010
C  -2.5840    0.9970    0.3399
C  -2.0309    2.3947    0.2950
H  -2.1954    2.8948    1.2557
H  -2.5350    2.9740    -0.4853
H  -0.9566    2.4306    0.1008
C  -1.8962    -0.1188    0.0278
H  -2.4009    -1.0811    0.1167
C  -0.4767    -0.2184    -0.4676
H  -0.1346    0.7339    -0.8846
H  -0.4664    -0.9365    -1.2974


