%chk=IsoP_00022_gaussian.chk
%nproc=4
%mem=4000Mb
#p 6-31g* mp2

Conformer number 00022. Energy MM = 23.712 kcal/mol

0 1
C  0.7783    0.2620    -0.1972
H  0.8968    0.7303    -1.1837
H  0.7965    1.0877    0.5263
C  1.9478    -0.6658    0.0862
C  2.0747    -1.1150    1.5176
H  1.9554    -0.2616    2.1940
H  1.3036    -1.8541    1.7557
H  3.0472    -1.5571    1.7456
C  2.8007    -1.0033    -0.9018
H  2.6256    -0.5978    -1.8983
C  3.9893    -1.9080    -0.8245
H  4.9065    -1.3293    -0.9697
H  4.0675    -2.4494    0.1202
H  3.9296    -2.6556    -1.6223
C  -3.6826    1.9374    -0.1885
H  -3.5816    2.9540    0.2055
H  -3.6720    2.0020    -1.2817
H  -4.6589    1.5427    0.1113
C  -2.5804    1.0590    0.3437
C  -2.5599    0.9317    1.8420
H  -1.6797    0.4071    2.2208
H  -3.4487    0.3931    2.1862
H  -2.5588    1.9251    2.3036
C  -1.7057    0.4703    -0.4952
H  -1.8097    0.6518    -1.5651
C  -0.5742    -0.4576    -0.1407
H  -0.5822    -1.2889    -0.8576
H  -0.7293    -0.9148    0.8413


