%chk=IsoP_00025_gaussian.chk
%nproc=4
%mem=4000Mb
#p 6-31g* mp2

Conformer number 00025. Energy MM = 23.866 kcal/mol

0 1
C  0.9930    0.1338    1.3146
H  1.4979    0.0877    2.2883
H  1.0193    1.1918    1.0212
C  1.7844    -0.7138    0.3296
C  2.0624    -2.1239    0.7763
H  1.1534    -2.7301    0.7142
H  2.8377    -2.6176    0.1860
H  2.4116    -2.1302    1.8145
C  2.2107    -0.1799    -0.8327
H  1.9663    0.8616    -1.0426
C  2.9777    -0.8482    -1.9287
H  3.9813    -0.4174    -1.9957
H  3.0726    -1.9282    -1.8019
H  2.4703    -0.6774    -2.8839
C  -2.9746    0.8473    -1.3014
H  -4.0509    0.7732    -1.1144
H  -2.6926    0.0126    -1.9519
H  -2.7788    1.7754    -1.8483
C  -2.2182    0.8394    0.0017
C  -2.5790    1.9643    0.9317
H  -1.9347    2.0249    1.8113
H  -2.4943    2.9242    0.4107
H  -3.6117    1.8502    1.2770
C  -1.2981    -0.1124    0.2528
H  -1.1117    -0.8663    -0.5128
C  -0.4703    -0.2958    1.4978
H  -0.5239    -1.3505    1.7941
H  -0.8951    0.2597    2.3398


