%chk=IsoP_00040_gaussian.chk
%nproc=4
%mem=4000Mb
#p 6-31g* mp2

Conformer number 00040. Energy MM = 23.712 kcal/mol

0 1
C  0.6044    0.0421    -0.5304
H  0.9305    1.0075    -0.9405
H  -0.0839    -0.3783    -1.2753
C  1.7939    -0.8911    -0.3781
C  1.4456    -2.3358    -0.1364
H  1.0807    -2.4747    0.8859
H  2.2889    -3.0133    -0.2883
H  0.6606    -2.6569    -0.8296
C  3.0494    -0.4142    -0.4946
H  3.1832    0.6488    -0.6955
C  4.3365    -1.1645    -0.3616
H  4.8441    -1.2057    -1.3301
H  4.9912    -0.6412    0.3429
H  4.2134    -2.1842    0.0082
C  -3.1857    -0.3794    0.5683
H  -3.7799    -0.5144    1.4778
H  -3.8444    -0.5138    -0.2966
H  -2.4443    -1.1806    0.5276
C  -2.5797    0.9967    0.5462
C  -3.5822    2.1133    0.4124
H  -3.1076    3.1002    0.4067
H  -4.2886    2.0896    1.2487
H  -4.1440    2.0093    -0.5216
C  -1.2612    1.2632    0.6234
H  -0.9380    2.3034    0.5782
C  -0.1331    0.2803    0.7923
H  0.5626    0.6896    1.5363
H  -0.4903    -0.6648    1.2126


