%chk=IsoP_00004_gaussian.chk
%nproc=4
%mem=4000Mb
#p 6-31g* mp2

Conformer number 00004. Energy MM = 23.242 kcal/mol

0 1
C  0.9565    -0.0284    0.7594
H  1.0227    0.8917    0.1665
H  1.1206    0.2927    1.7968
C  2.0518    -0.9971    0.3636
C  2.5048    -1.9303    1.4570
H  3.3028    -2.6025    1.1245
H  1.6714    -2.5517    1.7996
H  2.8872    -1.3591    2.3092
C  2.6248    -1.0410    -0.8556
H  3.4224    -1.7624    -1.0311
C  2.2823    -0.2121    -2.0530
H  2.1062    -0.8679    -2.9118
H  1.3852    0.3964    -1.9197
H  3.1176    0.4512    -2.2969
C  -2.2778    1.0337    -1.2850
H  -3.1951    0.5917    -1.6873
H  -2.1934    2.0576    -1.6651
H  -1.4298    0.4763    -1.6890
C  -2.3252    1.0440    0.2182
C  -3.3764    1.9536    0.7987
H  -3.3872    1.9315    1.8936
H  -3.1965    2.9882    0.4889
H  -4.3703    1.6533    0.4509
C  -1.5131    0.3311    1.0230
H  -1.6297    0.4350    2.1018
C  -0.4396    -0.6426    0.6153
H  -0.5294    -1.5279    1.2575
H  -0.5927    -1.0049    -0.4066


