%chk=IsoP_00048_gaussian.chk
%nproc=4
%mem=4000Mb
#p 6-31g* mp2

Conformer number 00048. Energy MM = 23.692 kcal/mol

0 1
C  1.5015    0.2595    1.1972
H  2.0168    1.0648    0.6619
H  2.1059    0.0965    2.0997
C  1.5020    -1.0263    0.3926
C  1.3326    -2.2860    1.2043
H  2.1296    -2.3662    1.9507
H  0.3691    -2.2846    1.7227
H  1.3705    -3.1878    0.5840
C  1.6670    -1.0987    -0.9434
H  1.6666    -2.0817    -1.4136
C  1.8321    0.0285    -1.9124
H  1.0632    -0.0420    -2.6885
H  2.8111    -0.0414    -2.3965
H  1.7485    1.0169    -1.4570
C  -2.5014    1.4484    -1.2215
H  -3.5414    1.6625    -0.9545
H  -2.4937    0.8213    -2.1191
H  -2.0216    2.3991    -1.4767
C  -1.8068    0.7426    -0.0861
C  -2.4322    -0.5697    0.2972
H  -1.8842    -1.1050    1.0746
H  -3.4517    -0.4074    0.6622
H  -2.4798    -1.2311    -0.5746
C  -0.7116    1.2797    0.4860
H  -0.3452    2.2322    0.1029
C  0.1047    0.7327    1.6276
H  -0.4194    -0.0593    2.1699
H  0.2281    1.5465    2.3540


