%chk=IsoP_00046_gaussian.chk
%nproc=4
%mem=4000Mb
#p 6-31g* mp2

Conformer number 00046. Energy MM = 23.959 kcal/mol

0 1
C  0.5938    -1.6410    0.5081
H  0.4890    -1.8969    1.5708
H  0.9611    -2.5613    0.0364
C  1.6336    -0.5494    0.3459
C  1.8257    0.3438    1.5447
H  2.6069    1.0938    1.3810
H  2.1185    -0.2508    2.4163
H  0.9030    0.8793    1.7839
C  2.3843    -0.3768    -0.7605
H  3.1194    0.4273    -0.7711
C  2.3290    -1.1663    -2.0298
H  3.2917    -1.6575    -2.2014
H  1.5514    -1.9333    -2.0322
H  2.1344    -0.4937    -2.8712
C  -1.4197    1.6691    -0.8823
H  -2.2934    1.9225    -1.4916
H  -0.7461    1.0699    -1.4982
H  -0.8885    2.5958    -0.6398
C  -1.8545    0.9795    0.3815
C  -2.6701    1.8438    1.3073
H  -2.9722    1.3116    2.2155
H  -2.0925    2.7220    1.6137
H  -3.5808    2.1837    0.8034
C  -1.5544    -0.2910    0.7158
H  -1.9137    -0.6721    1.6717
C  -0.7797    -1.3009    -0.0891
H  -1.3793    -2.2204    -0.1086
H  -0.6769    -1.0028    -1.1366


