%chk=IsoP_00006_gaussian.chk
%nproc=4
%mem=4000Mb
#p 6-31g* mp2

Conformer number 00006. Energy MM = 23.712 kcal/mol

0 1
C  0.3675    -0.6796    -0.3652
H  -0.3017    -1.4293    0.0771
H  0.2404    -0.7741    -1.4522
C  1.7990    -1.0069    0.0253
C  2.0246    -1.2297    1.4971
H  1.9911    -0.2784    2.0369
H  2.9808    -1.7092    1.7184
H  1.2470    -1.8851    1.9042
C  2.7530    -1.1125    -0.9213
H  2.4700    -0.9544    -1.9620
C  4.2075    -1.4079    -0.7353
H  4.4444    -2.3886    -1.1587
H  4.8017    -0.6565    -1.2655
H  4.5275    -1.3951    0.3083
C  -3.9012    1.4364    -0.2779
H  -3.8007    1.7071    -1.3343
H  -4.6076    0.6023    -0.2143
H  -4.3298    2.2971    0.2459
C  -2.5830    1.0532    0.3427
C  -2.6688    0.6819    1.7975
H  -2.9401    1.5587    2.3942
H  -3.4362    -0.0859    1.9446
H  -1.7366    0.2767    2.1975
C  -1.4535    1.0484    -0.3920
H  -1.5184    1.3196    -1.4460
C  -0.0572    0.7274    0.0708
H  0.6222    1.4715    -0.3649
H  0.0373    0.8423    1.1549


