%chk=nitrobenzene_00022_gaussian.chk
%nproc=4
%mem=4000Mb
#p 6-31g* mp2

Conformer number 00022. Energy MM = 49.472 kcal/mol

0 1
C  -1.9067    0.0557    0.0218
C  -1.2487    -1.1723    -0.0696
C  0.1464    -1.2194    -0.0860
C  0.8767    -0.0256    -0.0100
C  0.2192    1.2087    0.0818
C  -1.1762    1.2431    0.0973
H  -2.9942    0.0874    0.0342
H  -1.8245    -2.0934    -0.1281
H  0.6440    -2.1842    -0.1576
H  0.7738    2.1429    0.1414
H  -1.6959    2.1962    0.1684
N  2.3440    -0.0684    -0.0268
O  2.9538    1.0085    0.0422
O  2.8882    -1.1791    -0.1090


