%Mem=61440MB 
%NProc=8 

#P B3LYP/6-31G(d) Integral=Ultrafine Opt=(Tight,MaxCycle=55) GFInput GFPrint SCF(Conver=8,XQC,MaxConventionalCycles=64,MaxCycle=128) Test 

 Optimization step - Input generated by PyRED DVE-DMDS-OPLS 

0 1 
C        6.588838         1.515796         2.039648
H        6.908326         0.545588         2.437050
H        7.180877         2.291122         2.540801
H        5.535146         1.662983         2.299237
C        6.782054         1.600046         0.526306
H        6.502640         2.597652         0.170671
H        7.842631         1.445590         0.268935
O        5.965171         0.701712        -0.213400
C        6.375626        -0.657846        -0.212763
H        7.383828        -0.768874         0.213032
H        6.411393        -0.995541        -1.256606
C        5.408827        -1.551894         0.551233
H        5.824576        -2.573988         0.614105
H        5.278431        -1.179537         1.579642
O        4.174304        -1.553752        -0.135150
C        3.107736        -2.154951         0.574788
H        3.055711        -1.760637         1.602682
H        3.247448        -3.249117         0.639900
C        1.801724        -1.849047        -0.144794
H        1.002601        -2.454836         0.296889
H        1.893152        -2.124587        -1.206110
O        1.387124        -0.499287        -0.013314
C        2.015354         0.430017        -0.890971
H        2.078866         0.006056        -1.903990
H        3.039177         0.644119        -0.557226
C        1.208949         1.722006        -0.916461
H        1.787052         2.477117        -1.459999
H        1.058626         2.097614         0.101705
S       -0.426842         1.628396        -1.763670
C       -1.610471         1.532984        -0.361705
H       -1.331386         2.300252         0.372451
H       -2.569003         1.832324        -0.797012
C       -1.728288         0.177036         0.338899
H       -2.376635         0.271376         1.219664
H       -0.740843        -0.144836         0.674544
S       -2.390029        -1.192002        -0.704016
C       -4.123592        -1.321142        -0.097208
H       -4.113660        -1.388879         0.996074
H       -4.483985        -2.282447        -0.475853
C       -5.045672        -0.199504        -0.577189
H       -4.696635         0.780367        -0.236633
H       -5.063299        -0.171031        -1.670594
S       -6.801843        -0.423972        -0.068714
C       -6.756701         0.088567         1.699333
H       -7.707594        -0.272235         2.105570
H       -5.964558        -0.465247         2.215067
C       -6.616744         1.593567         1.925405
H       -7.435678         2.138939         1.446399
H       -6.631709         1.819582         2.999306
H       -5.674689         1.979166         1.520485
 

