%Mem=61440MB 
%NProc=8 

#P B3LYP/6-31G(d) Integral=Ultrafine SCF(Conver=8,XQC,MaxConventionalCycles=64,MaxCycle=128) NoSymm Test 
   Pop=mk IOp(6/33=2) GFInput GFPrint 

 MEP step - Input generated by PyRED DVE-DMDS-OPLS 

0 1 
C       -5.875753        -0.864444        -4.167986
H       -5.020776        -0.817366        -4.852512
H       -6.348733        -1.846474        -4.291392
H       -6.593440        -0.093320        -4.467414
C       -5.444287        -0.656694        -2.717802
H       -6.317026        -0.714668        -2.057129
H       -4.734985        -1.429236        -2.399946
O       -4.892318         0.643430        -2.502067
C       -3.509716         0.775077        -2.784826
H       -3.353770         1.809632        -3.116418
H       -3.198372         0.112455        -3.605838
C       -2.623817         0.529643        -1.572026
H       -1.604647         0.886083        -1.777119
H       -3.015933         1.100579        -0.716309
O       -2.620091        -0.863308        -1.271274
C       -2.079056        -1.216337        -0.012194
H       -2.481181        -2.209550         0.220323
H       -2.416454        -0.518316         0.769878
C       -0.558723        -1.303973         0.013403
H       -0.211682        -1.884033        -0.856983
H       -0.243475        -1.842987         0.924639
O        0.000000        -0.000000         0.000000
C        1.417445         0.000000         0.000000
H        1.810445        -0.521665        -0.886704
H        1.797512        -0.529976         0.889086
C        1.877921         1.453884         0.000000
H        1.453137         1.987930         0.856444
H        1.521404         1.952370        -0.906751
S        3.699944         1.650273        -0.007511
C        4.092019         1.301527         1.759262
H        3.470388         1.941419         2.394011
H        3.867089         0.256471         1.993630
C        5.572251         1.589758         2.005043
H        5.788149         2.646418         1.813609
H        6.189772         0.982293         1.335729
S        5.975577         1.203940         3.760230
C        7.688078         1.868259         3.873082
H        7.902800         1.909469         4.945141
H        7.697090         2.898235         3.503445
C        8.734781         1.006172         3.162978
H        8.702122        -0.012888         3.558817
H        8.542455         0.941731         2.086943
S       10.463158         1.603177         3.403613
C       10.768111         2.569511         1.867233
H       11.848787         2.748086         1.885989
H       10.568170         1.921267         1.006349
C       10.014594         3.893095         1.746292
H       10.330864         4.425582         0.840255
H        8.932860         3.737514         1.674305
H       10.208521         4.537175         2.609695
 

