%Mem=61440MB 
%NProc=8 

#P B3LYP/6-31G(d) Integral=Ultrafine SCF(Conver=8,XQC,MaxConventionalCycles=64,MaxCycle=128) NoSymm Test 
   Pop=mk IOp(6/33=2) GFInput GFPrint 

 MEP step - Input generated by PyRED DVE-DMDS-OPLS 

0 1 
C        2.842725        -5.750090         0.850518
H        2.248130        -6.654103         0.680573
H        3.487043        -5.593780        -0.021071
H        3.480718        -5.932229         1.723176
C        1.965514        -4.522691         1.090406
H        1.310670        -4.680354         1.962688
H        2.593627        -3.651044         1.303086
O        1.183535        -4.152955        -0.041621
C        0.043899        -4.966820        -0.265389
H       -0.592306        -4.993516         0.634306
H        0.333267        -6.003122        -0.506222
C       -0.754355        -4.405761        -1.434591
H       -0.093438        -4.301960        -2.308298
H       -1.539349        -5.127738        -1.690011
O       -1.420733        -3.188534        -1.154322
C       -0.656510        -1.991860        -1.279222
H       -1.158178        -1.331300        -1.999530
H        0.350138        -2.208514        -1.652719
C       -0.592204        -1.291259         0.080894
H       -0.053535        -1.926800         0.796540
H       -1.611668        -1.141397         0.450620
O        0.000000         0.000000        -0.000000
C        1.420929        -0.000000        -0.000000
H        1.812178        -0.508629        -0.896884
H        1.801582        -0.537695         0.882044
C        1.920537         1.437837         0.000000
H        1.490261         1.993098        -0.839656
H        3.007136         1.433327        -0.141293
S        1.689289         2.386625         1.553416
C       -0.129884         2.656864         1.647817
H       -0.618564         1.711117         1.893271
H       -0.240524         3.338276         2.497896
C       -0.804835         3.240286         0.408614
H       -1.855868         3.428538         0.659942
H       -0.784192         2.509435        -0.405424
S       -0.031201         4.818009        -0.143699
C       -1.322074         5.363730        -1.331226
H       -1.637450         4.494729        -1.923493
H       -0.816748         6.048004        -2.020075
C       -2.552723         6.038861        -0.712648
H       -3.348186         6.117969        -1.463883
H       -2.954268         5.434036         0.106388
S       -2.256077         7.699865         0.012397
C       -2.251839         8.752433        -1.497554
H       -1.800987         9.693923        -1.166375
H       -1.564835         8.319649        -2.233884
C       -3.629188         9.006496        -2.109628
H       -4.104259         8.076698        -2.441449
H       -4.296509         9.483924        -1.385478
H       -3.541748         9.663085        -2.984814
 

