%Mem=61440MB 
%NProc=8 

#P B3LYP/6-31G(d) Integral=Ultrafine SCF(Conver=8,XQC,MaxConventionalCycles=64,MaxCycle=128) NoSymm Test 
   Pop=mk IOp(6/33=2) GFInput GFPrint 

 MEP step - Input generated by PyRED DVE-DMDS-OPLS 

0 1 
C        2.604610        -7.101957        -0.566165
H        2.342069        -6.689197         0.413150
H        2.245627        -8.135879        -0.616358
H        3.695678        -7.105681        -0.654563
C        1.984448        -6.268946        -1.676332
H        2.240426        -6.687083        -2.665455
H        0.885688        -6.285413        -1.592528
O        2.486598        -4.945996        -1.566619
C        2.077011        -4.068506        -2.596913
H        2.149685        -4.559857        -3.582299
H        2.783799        -3.232076        -2.581470
C        0.666240        -3.515005        -2.431391
H        0.404047        -2.934482        -3.333311
H       -0.070657        -4.331129        -2.344922
O        0.625436        -2.693860        -1.279892
C       -0.657668        -2.156680        -1.020856
H       -1.384018        -2.970231        -0.842755
H       -1.019308        -1.569963        -1.881957
C       -0.605110        -1.264109         0.212289
H       -0.100184        -1.804989         1.028012
H       -1.633463        -1.051602         0.526974
O        0.000000        -0.000000         0.000000
C        1.426816         0.000000        -0.000000
H        1.818219        -0.548882        -0.862937
H        1.791118        -0.503702         0.912319
C        1.919365         1.439823         0.000000
H        3.004146         1.439149         0.154767
H        1.475391         1.998390         0.830373
S        1.710158         2.379323        -1.563813
C       -0.109801         2.621655        -1.694285
H       -0.219974         3.257272        -2.579082
H       -0.583519         1.657578        -1.893641
C       -0.801761         3.260576        -0.492038
H       -0.773304         2.572020         0.356613
H       -1.854654         3.429647        -0.751112
S       -0.058820         4.885253        -0.038969
C       -1.437543         5.598638         0.943111
H       -2.369045         5.514198         0.371615
H       -1.205057         6.664600         1.031783
C       -1.589948         4.977181         2.331577
H       -1.785075         3.903465         2.251507
H       -0.668620         5.117763         2.906435
S       -2.985366         5.795988         3.216466
C       -2.807766         5.060377         4.892485
H       -1.782375         5.232217         5.239950
H       -3.465388         5.666972         5.524331
C       -3.183787         3.582421         4.994295
H       -2.529612         2.955568         4.379024
H       -3.090742         3.238443         6.032289
H       -4.215434         3.417286         4.668008
 

