%Mem=61440MB 
%NProc=8 

#P B3LYP/6-31G(d) Integral=Ultrafine SCF(Conver=8,XQC,MaxConventionalCycles=64,MaxCycle=128) NoSymm Test 
   Pop=mk IOp(6/33=2) GFInput GFPrint 

 MEP step - Input generated by PyRED DVE-DMDS-OPLS 

0 1 
C        7.108702        -1.261505        -3.771632
H        7.448742        -0.369597        -4.308434
H        7.153712        -1.052244        -2.697804
H        7.811281        -2.072899        -3.995361
C        5.692455        -1.667776        -4.174964
H        5.644301        -1.882174        -5.255316
H        5.400582        -2.581145        -3.645452
O        4.703444        -0.703241        -3.831126
C        4.635747         0.411424        -4.705635
H        4.395948         0.073871        -5.730048
H        5.590181         0.956655        -4.744286
C        3.548956         1.364012        -4.225100
H        3.346573         2.089113        -5.022300
H        2.625216         0.794586        -4.043205
O        3.927688         2.125003        -3.088706
C        3.697188         1.506126        -1.824613
H        4.454554         1.897608        -1.137504
H        3.828403         0.420789        -1.886804
C        2.307318         1.870976        -1.291464
H        1.526467         1.554851        -1.999771
H        2.233723         2.958249        -1.186308
O        2.092540         1.309492         0.000000
C        1.531153        -0.000000        -0.000000
H        1.901526        -0.496691         0.902213
H        1.890016        -0.570037        -0.871735
C        0.000000         0.000000         0.000000
H       -0.355228        -1.022831        -0.172969
H       -0.386729         0.610546        -0.824601
S       -0.806476         0.486551         1.578143
C       -0.506397         2.300233         1.635643
H       -0.638279         2.573402         2.687554
H        0.540322         2.476631         1.374141
C       -1.421230         3.142623         0.741100
H       -1.422895         2.757088        -0.283289
H       -1.039244         4.169641         0.688380
S       -3.189946         3.197365         1.242409
C       -3.134955         4.458973         2.578969
H       -2.268619         4.267737         3.221613
H       -4.028301         4.281099         3.185196
C       -3.126794         5.895434         2.056372
H       -2.265509         6.061074         1.401596
H       -4.036921         6.087469         1.478730
S       -3.057293         7.061914         3.482656
C       -3.308949         8.669018         2.624610
H       -4.231883         8.607395         2.036333
H       -3.493729         9.381078         3.436058
C       -2.135577         9.133818         1.762636
H       -1.220241         9.214828         2.357234
H       -1.942377         8.442165         0.935774
H       -2.352273        10.117380         1.326803
 

