%Mem=61440MB 
%NProc=8 

#P B3LYP/6-31G(d) Integral=Ultrafine SCF(Conver=8,XQC,MaxConventionalCycles=64,MaxCycle=128) NoSymm Test 
   Pop=mk IOp(6/33=2) GFInput GFPrint 

 MEP step - Input generated by PyRED DVE-DMDS-OPLS 

0 1 
C       -6.916998        -0.731993        -2.715700
H       -7.285953        -1.748579        -2.541549
H       -7.335160        -0.077856        -1.943251
H       -7.298037        -0.403393        -3.689744
C       -5.390482        -0.665006        -2.699973
H       -4.968635        -1.331588        -3.470236
H       -5.059593         0.353770        -2.927675
O       -4.818755        -0.967402        -1.432718
C       -4.826864        -2.342827        -1.090794
H       -4.395753        -2.946915        -1.906183
H       -5.853682        -2.703737        -0.911294
C       -4.010932        -2.557644         0.177471
H       -4.348471        -1.849956         0.951024
H       -4.202451        -3.575116         0.538989
O       -2.610083        -2.471267        -0.007822
C       -2.072828        -1.155790        -0.008121
H       -2.401200        -0.600777         0.884776
H       -2.391725        -0.588172        -0.889334
C       -0.558124        -1.302367         0.006755
H       -0.230572        -1.875888        -0.875558
H       -0.244185        -1.862446         0.902101
O        0.000000        -0.000000         0.000000
C        1.414938         0.000000         0.000000
H        1.800079        -0.530088        -0.887315
H        1.809416        -0.520323         0.887393
C        1.873984         1.454411         0.000000
H        1.533338         1.950654         0.913625
H        1.429092         1.991202        -0.843675
S        3.700226         1.634583        -0.024113
C        4.069701         1.417571        -1.816925
H        5.133062         1.162629        -1.850799
H        3.518024         0.558328        -2.209438
C        3.785943         2.672202        -2.643991
H        4.374087         3.519506        -2.277207
H        2.731230         2.953550        -2.561509
S        4.058769         2.482639        -4.454910
C        5.899277         2.521842        -4.591092
H        6.288881         3.120947        -3.761597
H        6.121420         3.065670        -5.513600
C        6.548631         1.136500        -4.642935
H        6.340403         0.559978        -3.735644
H        6.143248         0.566387        -5.484212
S        8.365380         1.182763        -4.920834
C        8.964694         1.701813        -3.259235
H        8.585056         2.702004        -3.025132
H        8.569523         1.003500        -2.512267
C       10.493089         1.700362        -3.237199
H       10.891220         0.703094        -3.451081
H       10.901052         2.396073        -3.978063
H       10.854796         2.007518        -2.249440
 

