%Mem=61440MB 
%NProc=8 

#P B3LYP/6-31G(d) Integral=Ultrafine SCF(Conver=8,XQC,MaxConventionalCycles=64,MaxCycle=128) NoSymm Test 
   Pop=mk IOp(6/33=2) GFInput GFPrint 

 MEP step - Input generated by PyRED DVE-DMDS-OPLS 

0 1 
C        0.219914        -7.870166        -0.513518
H        0.670566        -7.288000         0.296603
H       -0.529377        -8.539035        -0.078206
H        1.001515        -8.477802        -0.982892
C       -0.422324        -6.946600        -1.536124
H        0.340887        -6.289843        -1.984044
H       -0.871185        -7.530003        -2.359065
O       -1.425780        -6.190468        -0.876646
C       -2.187722        -5.350764        -1.721592
H       -3.098820        -5.107961        -1.164595
H       -2.479653        -5.883823        -2.642843
C       -1.496919        -4.048034        -2.109154
H       -0.518684        -4.244170        -2.579434
H       -2.118141        -3.526893        -2.859434
O       -1.338241        -3.251001        -0.952763
C       -0.681080        -2.024665        -1.199946
H       -1.237329        -1.411211        -1.928139
H        0.324841        -2.200834        -1.617098
C       -0.596867        -1.280646         0.133352
H       -0.056783        -1.897224         0.867495
H       -1.609874        -1.115709         0.513434
O        0.000000         0.000000        -0.000000
C        1.419519         0.000000         0.000000
H        1.830498        -0.513213        -0.881698
H        1.798976        -0.524223         0.892184
C        1.868079         1.457842         0.000000
H        1.423606         1.989025         0.847261
H        1.516560         1.952506        -0.910475
S        3.692579         1.653223         0.006993
C        4.087749         1.412521         1.790748
H        3.563642         0.532037         2.173663
H        5.157724         1.184241         1.807481
C        3.781798         2.641977         2.647626
H        2.713392         2.877615         2.618187
H        4.318069         3.519564         2.272139
S        4.158746         2.413781         4.433818
C        6.002077         2.496197         4.410461
H        6.300254         3.411102         3.886914
H        6.415909         1.640319         3.870111
C        6.523339         2.499314         5.847568
H        6.091729         3.325989         6.420449
H        6.240888         1.572317         6.356641
S        8.356638         2.562168         5.954782
C        8.697246         4.338921         5.611184
H        9.775403         4.368136         5.420812
H        8.204935         4.625555         4.675450
C        8.327566         5.292608         6.746380
H        7.252870         5.276048         6.957083
H        8.855919         5.028275         7.667511
H        8.594809         6.322341         6.477306
 

