%Mem=61440MB 
%NProc=8 

#P B3LYP/6-31G(d) Integral=Ultrafine SCF(Conver=8,XQC,MaxConventionalCycles=64,MaxCycle=128) NoSymm Test 
   Pop=mk IOp(6/33=2) GFInput GFPrint 

 MEP step - Input generated by PyRED DVE-DMDS-OPLS 

0 1 
C       -6.708418        -5.036852         2.021278
H       -7.106115        -4.332898         1.283106
H       -6.836604        -6.051329         1.630435
H       -7.292130        -4.940651         2.943419
C       -5.239561        -4.753544         2.290405
H       -5.117045        -3.737739         2.699276
H       -4.839850        -5.456013         3.040894
O       -4.530715        -4.901858         1.066865
C       -3.126535        -4.753453         1.172398
H       -2.687562        -5.280430         0.318859
H       -2.741003        -5.221328         2.091231
C       -2.693105        -3.286967         1.123327
H       -3.084350        -2.829038         0.202715
H       -3.106421        -2.725001         1.976520
O       -1.274720        -3.272820         1.168580
C       -0.689822        -1.983981         1.264575
H        0.312128        -2.138459         1.679035
H       -1.249034        -1.344630         1.965052
C       -0.595377        -1.286239        -0.099983
H       -1.596690        -1.123524        -0.512250
H       -0.042206        -1.927471        -0.803119
O        0.000000        -0.000000         0.000000
C        1.420357        -0.000000        -0.000000
H        1.799024        -0.524152        -0.892512
H        1.831853        -0.513287         0.881150
C        1.869788         1.457481         0.000000
H        1.525365         1.950983         0.913757
H        1.420332         1.990589        -0.843454
S        3.694769         1.648225        -0.020911
C        4.070869         1.425307        -1.811143
H        5.138438         1.186791        -1.841568
H        3.535238         0.554066        -2.199100
C        3.767253         2.667281        -2.650258
H        4.303926         3.538131        -2.262635
H        2.700267         2.907889        -2.613907
S        4.128606         2.446398        -4.442788
C        5.966242         2.577544        -4.480039
H        6.247364         2.158322        -5.451066
H        6.405343         1.930922        -3.714607
C        6.480168         4.011192        -4.339402
H        6.038595         4.657950        -5.103141
H        6.202585         4.429091        -3.366747
S        8.315214         4.138545        -4.388523
C        8.666013         3.921222        -6.183281
H        9.748441         3.758907        -6.221252
H        8.197567         2.995268        -6.534321
C        8.271513         5.108321        -7.060762
H        8.776250         6.022212        -6.732801
H        8.548564         4.915406        -8.104876
H        7.191922         5.291387        -7.035347
 

