%Mem=61440MB 
%NProc=8 

#P B3LYP/6-31G(d) Integral=Ultrafine SCF(Conver=8,XQC,MaxConventionalCycles=64,MaxCycle=128) NoSymm Test 
   Pop=mk IOp(6/33=2) GFInput GFPrint 

 MEP step - Input generated by PyRED DVE-DMDS-OPLS 

0 1 
C        0.568675        -7.730079         3.312225
H        0.477458        -7.625338         2.225716
H        1.633624        -7.753919         3.566523
H        0.125111        -8.692969         3.591765
C       -0.130159        -6.594033         4.057564
H       -1.200821        -6.563768         3.794224
H       -0.060706        -6.758038         5.138263
O        0.457586        -5.318486         3.837794
C        0.188733        -4.748058         2.571552
H       -0.896182        -4.754029         2.370768
H        0.680582        -5.297137         1.754290
C        0.731429        -3.318221         2.607672
H        0.228806        -2.748997         3.403573
H        1.799878        -3.352196         2.841329
O        0.612711        -2.659758         1.355313
C       -0.672883        -2.122652         1.081221
H       -1.021432        -1.506029         1.924728
H       -1.413245        -2.924382         0.921141
C       -0.609131        -1.266772        -0.177254
H       -1.634950        -1.058510        -0.502710
H       -0.104332        -1.833648        -0.975696
O        0.000000         0.000000        -0.000000
C        1.423616        -0.000000        -0.000000
H        1.791092        -0.502104        -0.912800
H        1.818122        -0.545556         0.863677
C        1.914673         1.441067        -0.000000
H        1.458077         1.995698        -0.827395
H        2.998955         1.444247        -0.156373
S        1.664837         2.373815         1.563598
C       -0.122781         2.821202         1.445917
H       -0.274423         3.388849         0.521147
H       -0.718050         1.909487         1.389364
C       -0.505614         3.653298         2.668001
H        0.131579         4.538116         2.767367
H       -0.378808         3.066175         3.583365
S       -2.272364         4.158722         2.694001
C       -2.334090         5.439622         1.376810
H       -3.398407         5.681904         1.294341
H       -2.024202         4.997890         0.422865
C       -1.525485         6.713310         1.627492
H       -0.455512         6.486704         1.679564
H       -1.677896         7.389778         0.776572
S       -2.066873         7.584690         3.155880
C       -1.452404         9.278454         2.789120
H       -1.870712         9.607145         1.830041
H       -1.907405         9.902099         3.566347
C        0.068392         9.433130         2.806624
H        0.544909         8.829978         2.026250
H        0.346365        10.480322         2.631746
H        0.481961         9.123531         3.771579
 

