%Mem=61440MB 
%NProc=8 

#P B3LYP/6-31G(d) Integral=Ultrafine SCF(Conver=8,XQC,MaxConventionalCycles=64,MaxCycle=128) NoSymm Test 
   Pop=mk IOp(6/33=2) GFInput GFPrint 

 MEP step - Input generated by PyRED DVE-DMDS-OPLS 

0 1 
C        3.072518        -1.516549        -5.097357
H        4.071256        -1.085186        -5.230607
H        2.736689        -1.884470        -6.074418
H        2.394211        -0.719098        -4.775972
C        3.077988        -2.654988        -4.078258
H        2.077931        -3.096296        -4.008268
H        3.766153        -3.452623        -4.402491
O        3.395113        -2.246170        -2.753959
C        4.765608        -1.977282        -2.496441
H        5.400660        -2.315906        -3.328392
H        5.053465        -2.542746        -1.600721
C        5.024953        -0.499439        -2.238706
H        6.113056        -0.326867        -2.150783
H        4.657334         0.104120        -3.083603
O        4.361477        -0.137193        -1.045496
C        4.318643         1.255264        -0.795998
H        3.973851         1.798650        -1.690763
H        5.321767         1.637891        -0.534664
C        3.355710         1.521262         0.352502
H        3.453878         2.567463         0.663132
H        3.620055         0.883680         1.209405
O        1.993547         1.344376         0.000000
C        1.523212         0.000000         0.000000
H        1.899487        -0.529590         0.887656
H        1.889215        -0.536601        -0.885177
C        0.000000         0.000000         0.000000
H       -0.343521        -1.026782        -0.165959
H       -0.381136         0.608635        -0.827431
S       -0.800796         0.556182         1.565796
C       -1.323005         2.273214         1.172503
H       -1.813735         2.263418         0.190331
H       -2.091668         2.498943         1.918213
C       -0.223528         3.338295         1.181586
H       -0.632032         4.293981         0.828333
H        0.577881         3.038108         0.504137
S        0.569857         3.635412         2.819298
C       -0.228239         5.210118         3.342248
H       -0.147201         5.937712         2.527391
H        0.389981         5.579529         4.166083
C       -1.675819         5.058746         3.811591
H       -2.316437         4.664773         3.016389
H       -1.727624         4.351584         4.644595
S       -2.406674         6.622190         4.455455
C       -2.787882         7.534455         2.902015
H       -2.978487         8.560086         3.235413
H       -1.890118         7.569747         2.275154
C       -3.986513         6.995662         2.121817
H       -4.890689         7.004942         2.738188
H       -4.168148         7.611073         1.231398
H       -3.821594         5.966866         1.783442
 

