%Mem=61440MB 
%NProc=8 

#P B3LYP/6-31G(d) Integral=Ultrafine SCF(Conver=8,XQC,MaxConventionalCycles=64,MaxCycle=128) NoSymm Test 
   Pop=mk IOp(6/33=2) GFInput GFPrint 

 MEP step - Input generated by PyRED DVE-DMDS-OPLS 

0 1 
C       -2.811275        -6.541258         1.619519
H       -3.310502        -5.632825         1.972095
H       -3.017467        -6.653985         0.550220
H       -3.239614        -7.399672         2.148360
C       -1.314455        -6.458394         1.868549
H       -1.103873        -6.354820         2.946281
H       -0.812582        -7.379974         1.527087
O       -0.800074        -5.339023         1.163494
C        0.598372        -5.174453         1.317609
H        1.135470        -6.041465         0.892044
H        0.867373        -5.103035         2.383972
C        1.048117        -3.907010         0.604052
H        2.143390        -3.907530         0.554918
H        0.665462        -3.914866        -0.427110
O        0.682017        -2.719417         1.290012
C       -0.609424        -2.193790         0.975169
H       -0.923018        -1.622783         1.856080
H       -1.327723        -3.007203         0.818471
C       -0.607291        -1.260360        -0.233977
H       -1.648234        -1.037953        -0.499640
H       -0.140139        -1.756334        -1.101685
O        0.000000        -0.000000         0.000000
C        1.421586        -0.000000        -0.000000
H        1.800700        -0.511823        -0.900472
H        1.821596        -0.525983         0.874220
C        1.856158         1.462657        -0.000000
H        1.503976         1.949051         0.915978
H        1.408303         1.971350        -0.858843
S        3.691094         1.560057        -0.067251
C        3.950785         3.337978         0.324877
H        3.401126         3.593083         1.236722
H        5.018155         3.414247         0.553233
C        3.573715         4.280903        -0.818809
H        2.514326         4.169576        -1.070091
H        4.146638         4.044618        -1.721314
S        3.754669         6.072948        -0.436956
C        5.580848         6.325720        -0.534317
H        5.717745         7.326164        -0.954838
H        5.992353         5.616405        -1.258483
C        6.294588         6.236842         0.818149
H        5.837080         6.939191         1.520947
H        6.205369         5.239916         1.260873
S        8.082068         6.686593         0.743420
C        8.902092         5.047405         0.575959
H        9.957315         5.267101         0.771855
H        8.555552         4.403382         1.392394
C        8.750052         4.352242        -0.776265
H        9.349905         3.433425        -0.797413
H        7.710421         4.068937        -0.971988
H        9.084325         5.000578        -1.592262
 

