%Mem=61440MB 
%NProc=8 

#P B3LYP/6-31G(d) Integral=Ultrafine SCF(Conver=8,XQC,MaxConventionalCycles=64,MaxCycle=128) NoSymm Test 
   Pop=mk IOp(6/33=2) GFInput GFPrint 

 MEP step - Input generated by PyRED DVE-DMDS-OPLS 

0 1 
C        3.478582         4.771887        -4.520076
H        2.711193         4.990557        -5.271258
H        4.106590         5.664336        -4.416878
H        4.106364         3.955713        -4.893103
C        2.874887         4.403403        -3.166898
H        3.671598         4.229146        -2.438589
H        2.238920         5.220995        -2.791120
O        2.122171         3.190453        -3.188122
C        0.877549         3.277280        -3.856324
H        1.009530         3.286396        -4.950263
H        0.349592         4.200497        -3.570022
C        0.021063         2.083317        -3.480627
H       -0.858214         2.050461        -4.146714
H        0.596888         1.158487        -3.641093
O       -0.391361         2.220102        -2.132824
C       -1.301935         1.226632        -1.687965
H       -2.049219         1.016855        -2.472722
H       -1.824105         1.658535        -0.827956
C       -0.661304        -0.091293        -1.249895
H        0.019456        -0.470918        -2.026693
H       -1.468421        -0.829589        -1.134556
O        0.000000        -0.000000         0.000000
C        1.422588         0.000000         0.000000
H        1.800878        -0.577178        -0.856890
H        1.732276        -0.522740         0.911539
C        2.009384         1.414084         0.000000
H        1.647032         1.955816         0.879707
H        1.708090         1.978792        -0.885535
S        3.840793         1.419967         0.141175
C        4.322354         0.922302        -1.566158
H        4.041928        -0.125866        -1.728301
H        3.771945         1.541609        -2.280741
C        5.832984         1.044867        -1.789609
H        6.084474         0.538785        -2.727996
H        6.391773         0.533144        -0.998774
S        6.492597         2.753059        -1.991840
C        7.009508         3.218646        -0.284480
H        6.193738         3.016661         0.413200
H        7.136077         4.305019        -0.334807
C        8.307711         2.544579         0.160795
H        8.177085         1.460010         0.229652
H        9.109284         2.725401        -0.561537
S        8.855366         3.047712         1.844757
C        9.537810         4.729517         1.536048
H        8.783023         5.337959         1.025955
H        9.656817         5.153681         2.538775
C       10.867840         4.753548         0.783868
H       10.773132         4.329462        -0.221571
H       11.222802         5.786224         0.674158
H       11.631104         4.181356         1.320268
 

