%Mem=61440MB 
%NProc=8 

#P B3LYP/6-31G(d) Integral=Ultrafine SCF(Conver=8,XQC,MaxConventionalCycles=64,MaxCycle=128) NoSymm Test 
   Pop=mk IOp(6/33=2) GFInput GFPrint 

 MEP step - Input generated by PyRED DVE-DMDS-OPLS 

0 1 
C        7.860164        -3.413117         0.566165
H        7.554603        -3.031109        -0.413150
H        8.954623        -3.408113         0.616358
H        7.510536        -4.446656         0.654563
C        7.272727        -2.556714         1.676332
H        7.585501        -2.934253         2.665455
H        7.643949        -1.522433         1.592528
O        5.858460        -2.603627         1.566619
C        5.160780        -1.932067         2.596913
H        5.602158        -2.159867         3.582299
H        4.140607        -2.330077         2.581470
C        5.093706        -0.418086         2.431391
H        4.629299         0.017894         3.333311
H        6.104412         0.014984         2.344922
O        4.329972        -0.113695         1.279892
C        4.237018         1.274209         1.020856
H        5.241875         1.698133         0.842755
H        3.798939         1.806288         1.881957
C        3.375484         1.513384        -0.212289
H        3.723816         0.860570        -1.028012
H        3.507269         2.555162        -0.526974
O        1.983565         1.350008         0.000000
C        1.521740        -0.000000        -0.000000
H        1.914388        -0.547992         0.862937
H        1.880412        -0.507726        -0.912319
C        0.000000         0.000000         0.000000
H       -0.350479        -1.026603        -0.154767
H       -0.384795         0.600869        -0.830373
S       -0.821210         0.502038         1.563813
C       -0.461422         2.302463         1.694285
H       -1.027162         2.612439         2.579082
H        0.604087         2.438632         1.893641
C       -0.841979         3.163976         0.492038
H       -0.199699         2.914182        -0.356613
H       -0.661153         4.214914         0.751112
S       -2.619668         2.986896         0.038969
C       -2.848392         4.522305        -0.943111
H       -2.466994         5.376332        -0.371615
H       -3.932222         4.647359        -1.031783
C       -2.211060         4.465356        -2.331577
H       -1.131986         4.302444        -2.251507
H       -2.642284         3.639128        -2.906435
S       -2.534127         6.050683        -3.216466
C       -1.895600         5.644545        -4.892485
H       -2.390082         4.729973        -5.239950
H       -2.256685         6.463106        -5.524331
C       -0.375496         5.521947        -4.994295
H        0.005872         4.700090        -4.379024
H       -0.080151         5.322573        -6.032289
H        0.114668         6.444608        -4.668008
 

