%Mem=61440MB 
%NProc=8 

#P HF/6-31G(d)  Opt=(Tight,MaxCycle=55) GFInput GFPrint SCF(Conver=8,XQC,MaxConventionalCycles=64,MaxCycle=128) Test 

 Optimization step - Input generated by PyRED DVE-DMDS-OPLS 

0 1 
C       -9.364000        -0.643000         1.383000
H       -9.570000        -1.717000         1.355000
H       -8.653000        -0.453000         2.191000
H      -10.295000        -0.113000         1.604000
C       -8.789000        -0.184000         0.059000
H       -9.503000        -0.368000        -0.760000
H       -8.599000         0.900000         0.085000
O       -7.598000        -0.904000        -0.172000
C       -6.992000        -0.657000        -1.417000
H       -7.747000        -0.646000        -2.221000
H       -6.311000        -1.493000        -1.598000
C       -6.193000         0.632000        -1.474000
H       -5.865000         0.803000        -2.513000
H       -6.816000         1.494000        -1.185000
O       -5.086000         0.514000        -0.618000
C       -4.300000         1.676000        -0.566000
H       -4.875000         2.515000        -0.140000
H       -3.968000         1.973000        -1.572000
C       -3.090000         1.409000         0.297000
H       -3.417000         0.946000         1.240000
H       -2.604000         2.367000         0.538000
O       -2.218000         0.551000        -0.402000
C       -1.252000        -0.093000         0.395000
H       -0.868000        -0.917000        -0.212000
H       -1.711000        -0.525000         1.295000
C       -0.110000         0.841000         0.795000
H       -0.475000         1.637000         1.450000
H        0.312000         1.318000        -0.095000
S        1.209000         0.012000         1.735000
C        2.063000        -0.888000         0.393000
H        1.394000        -1.615000        -0.071000
H        2.368000        -0.169000        -0.374000
C        3.277000        -1.607000         0.969000
H        2.961000        -2.358000         1.698000
H        3.932000        -0.907000         1.496000
S        4.235000        -2.513000        -0.290000
C        5.208000        -1.159000        -1.034000
H        4.555000        -0.301000        -1.216000
H        5.529000        -1.524000        -2.012000
C        6.425000        -0.764000        -0.203000
H        6.138000        -0.478000         0.813000
H        7.101000        -1.617000        -0.109000
S        7.409000         0.573000        -0.956000
C        6.416000         2.043000        -0.524000
H        6.807000         2.836000        -1.168000
H        5.377000         1.881000        -0.827000
C        6.502000         2.458000         0.939000
H        5.908000         3.361000         1.115000
H        6.119000         1.678000         1.605000
H        7.537000         2.663000         1.225000
 

