%Mem=61440MB 
%NProc=8 

#P HF/6-31G(d)  Opt=(Tight,MaxCycle=55) GFInput GFPrint SCF(Conver=8,XQC,MaxConventionalCycles=64,MaxCycle=128) Test 

 Optimization step - Input generated by PyRED DVE-DMDS-OPLS 

0 1 
C        4.533946         5.239688         0.359358
H        4.049735         5.365529        -0.602406
H        4.063309         5.908249         1.073422
H        5.575556         5.521560         0.255489
C        4.421216         3.801669         0.825073
H        4.895859         3.678149         1.796945
H        3.375397         3.523712         0.937094
O        5.055882         2.982897        -0.118974
C        5.025401         1.609747         0.139698
H        5.026173         1.407338         1.207786
H        5.934160         1.189085        -0.273626
C        3.805637         0.958355        -0.502951
H        2.897260         1.378154        -0.089512
H        3.805205         1.159193        -1.570591
O        3.769367        -0.419225        -0.248133
C        4.428226        -1.236813        -1.172841
H        5.499088        -1.038758        -1.177195
H        4.048099        -1.053268        -2.174647
C        4.200078        -2.690660        -0.813098
H        4.511223        -2.868000         0.212812
H        4.816959        -3.304522        -1.460560
O        2.874895        -3.088960        -1.011405
C        2.036447        -3.042570         0.111159
H        2.047746        -2.055632         0.553946
H        2.372378        -3.753552         0.862242
C        0.641314        -3.413772        -0.364196
H        0.650788        -4.418651        -0.766492
H        0.336120        -2.752623        -1.164544
S       -0.599613        -3.417564         0.963555
C       -0.966917        -1.645501         1.169898
H       -1.426289        -1.568540         2.147017
H       -0.047126        -1.078065         1.206964
C       -1.895942        -1.085865         0.094459
H       -2.814502        -1.656444         0.052287
H       -1.433055        -1.161286        -0.880929
S       -2.270233         0.684450         0.303081
C       -3.532739         0.661006         1.612530
H       -3.536688         1.662515         2.022235
H       -3.204715        -0.003561         2.404120
C       -4.951033         0.274698         1.187418
H       -4.965133        -0.675432         0.667414
H       -5.543180         0.145239         2.086648
S       -5.843789         1.508648         0.192515
C       -5.567916         0.943254        -1.517533
H       -4.512372         0.982116        -1.742616
H       -5.898972        -0.085548        -1.599669
C       -6.354244         1.827551        -2.481087
H       -7.417829         1.789355        -2.273020
H       -6.032373         2.861072        -2.415240
H       -6.196664         1.491672        -3.501000
 

