%Mem=61440MB 
%NProc=8 

#P HF/6-31G(d)  SCF(Conver=8,XQC,MaxConventionalCycles=64,MaxCycle=128) NoSymm Test 
   Pop=mk IOp(6/33=2) GFInput GFPrint 

 MEP step - Input generated by PyRED DVE-DMDS-OPLS 

0 1 
C       -8.287942        -0.542835        -2.459817
H       -8.017683        -1.456161        -1.941904
H       -9.013057        -0.010765        -1.854664
H       -8.751744        -0.805715        -3.405492
C       -7.061886         0.318132        -2.690767
H       -6.339047        -0.214203        -3.305992
H       -7.331517         1.228855        -3.222686
O       -6.511285         0.642418        -1.444367
C       -5.352138         1.422636        -1.469384
H       -5.348557         2.031583        -0.574490
H       -5.342264         2.091559        -2.325602
C       -4.104732         0.554278        -1.483837
H       -4.106535        -0.088033        -0.607357
H       -4.091424        -0.087243        -2.362488
O       -3.000778         1.413114        -1.495324
C       -1.741863         0.803438        -1.464192
H       -1.062294         1.454160        -2.000518
H       -1.755215        -0.154426        -1.977213
C       -1.261341         0.609063        -0.030496
H       -1.939104        -0.042812         0.506080
H       -1.248826         1.566569         0.483067
O        0.000000         0.000000        -0.000000
C        1.099877         0.864186         0.000000
H        1.071785         1.503136         0.879627
H        1.099322         1.509746        -0.873454
C        2.350368         0.000000        -0.000000
H        2.376237        -0.594322        -0.904154
H        2.321924        -0.689018         0.833803
S        3.891901         0.961658         0.021619
C        4.089821         1.349267         1.790587
H        4.761756         2.197272         1.817775
H        3.146710         1.678411         2.205479
C        4.656837         0.188373         2.605091
H        5.601103        -0.139365         2.191768
H        3.987026        -0.661155         2.571683
S        4.842999         0.564370         4.377034
C        6.351472         1.584345         4.418780
H        6.316809         2.083951         5.378286
H        6.302470         2.354621         3.660941
C        7.641045         0.777707         4.280715
H        7.689390         0.007390         5.038199
H        7.675266         0.278403         3.320867
S        9.147886         1.796728         4.323849
C        9.316882         2.205435         6.090162
H       10.060396         2.993308         6.111142
H        8.393499         2.640632         6.452587
C        9.758686         1.046391         6.978659
H       10.703145         0.637559         6.639375
H        9.881869         1.390125         8.001832
H        9.029334         0.244103         6.988403
 

