%Mem=61440MB 
%NProc=8 

#P HF/6-31G(d)  SCF(Conver=8,XQC,MaxConventionalCycles=64,MaxCycle=128) NoSymm Test 
   Pop=mk IOp(6/33=2) GFInput GFPrint 

 MEP step - Input generated by PyRED DVE-DMDS-OPLS 

0 1 
C       -7.010619         0.271165         2.197189
H       -7.749700         0.223002         1.404301
H       -6.631203        -0.730240         2.370233
H       -7.515197         0.606636         3.098285
C       -5.867624         1.217958         1.855692
H       -6.249106         2.217992         1.657935
H       -5.187422         1.288116         2.694904
O       -5.090034         0.783170         0.774520
C       -5.657247         0.915511        -0.493730
H       -6.123209         1.891651        -0.606712
H       -6.417968         0.155730        -0.663301
C       -4.565976         0.761385        -1.529530
H       -4.016245        -0.152718        -1.328057
H       -5.016766         0.670332        -2.514869
O       -3.722428         1.877617        -1.513769
C       -2.344436         1.645507        -1.468300
H       -1.861833         2.510093        -1.905560
H       -2.075051         0.781974        -2.072028
C       -1.858770         1.478827        -0.033203
H       -2.358407         0.648816         0.453912
H       -2.099895         2.374538         0.523994
O       -0.463911         1.319460         0.000000
C        0.000000         0.000000         0.000000
H       -0.346026        -0.525396        -0.889757
H       -0.376972        -0.532286         0.868925
C        1.518174         0.000000         0.000000
H        1.890587         0.586406        -0.830000
H        1.865278        -1.016613        -0.148369
S        2.326104         0.513359         1.542762
C        2.012762         2.302231         1.664761
H        0.962561         2.465985         1.854216
H        2.566163         2.600278         2.547221
C        2.424354         3.167508         0.476871
H        2.205142         4.196533         0.739394
H        1.827558         2.920731        -0.390704
S        4.194402         3.025570         0.071758
C        4.358676         4.425141        -1.075933
H        3.487893         4.440216        -1.723807
H        5.209816         4.195579        -1.703979
C        4.531374         5.801097        -0.426994
H        4.368452         6.572874        -1.170765
H        3.788218         5.953005         0.345060
S        6.136816         6.086903         0.376480
C        7.202082         6.504122        -1.039370
H        8.212012         6.384882        -0.665574
H        7.071194         5.762132        -1.818540
C        7.014584         7.913700        -1.593356
H        6.012222         8.066472        -1.978391
H        7.193925         8.656910        -0.825333
H        7.710715         8.089371        -2.408989
 

