%Mem=61440MB 
%NProc=8 

#P HF/6-31G(d)  SCF(Conver=8,XQC,MaxConventionalCycles=64,MaxCycle=128) NoSymm Test 
   Pop=mk IOp(6/33=2) GFInput GFPrint 

 MEP step - Input generated by PyRED DVE-DMDS-OPLS 

0 1 
C       -5.537136         2.024116        -4.507825
H       -5.721467         3.075114        -4.316802
H       -4.536155         1.922708        -4.911332
H       -6.247806         1.676444        -5.251423
C       -5.672310         1.224054        -3.226992
H       -6.680959         1.317784        -2.825015
H       -5.501620         0.168204        -3.427853
O       -4.744236         1.715321        -2.304598
C       -4.761189         1.128505        -1.039130
H       -5.785676         0.949900        -0.713440
H       -4.311060         1.841462        -0.360992
C       -3.980788        -0.170215        -0.955388
H       -4.146408        -0.616720         0.025641
H       -4.332473        -0.883341        -1.699805
O       -2.628061         0.102408        -1.141592
C       -1.803231        -1.018570        -1.145562
H       -2.028620        -1.652865        -2.003368
H       -1.947019        -1.610530        -0.243782
C       -0.362236        -0.570103        -1.222874
H       -0.257362         0.150630        -2.029456
H        0.264514        -1.430524        -1.451323
O        0.000000         0.000000         0.000000
C        1.133541         0.815043        -0.000000
H        1.069887         1.413079         0.898919
H        1.121829         1.492301        -0.849562
C        2.425810        -0.000000        -0.000000
H        2.526419        -0.555901        -0.924225
H        2.409008        -0.719938         0.809742
S        3.928729         1.013835         0.114038
C        3.962240         1.418576         1.891372
H        3.083627         1.985072         2.166249
H        3.958561         0.495679         2.457776
C        5.213974         2.237537         2.196936
H        5.182066         3.176006         1.658115
H        6.104983         1.715142         1.872612
S        5.370535         2.687589         3.952459
C        6.053226         1.167008         4.687136
H        5.515924         0.309803         4.303236
H        5.831296         1.229999         5.744192
C        7.560080         1.018026         4.485997
H        7.821887         1.024437         3.436337
H        8.071330         1.855398         4.942278
S        8.253143        -0.467453         5.276531
C        7.823617        -1.788542         4.099084
H        7.966803        -2.705950         4.657385
H        6.768147        -1.731558         3.860967
C        8.668042        -1.813255         2.828362
H        8.374661        -2.652214         2.203652
H        8.543220        -0.909329         2.242476
H        9.720283        -1.915308         3.066172
 

