%Mem=61440MB 
%NProc=8 

#P HF/6-31G(d)  SCF(Conver=8,XQC,MaxConventionalCycles=64,MaxCycle=128) NoSymm Test 
   Pop=mk IOp(6/33=2) GFInput GFPrint 

 MEP step - Input generated by PyRED DVE-DMDS-OPLS 

0 1 
C       -6.192562        -0.505935         0.676081
H       -6.126031        -1.369773         1.327731
H       -5.402915         0.186030         0.946360
H       -7.148992        -0.020228         0.842497
C       -6.056012        -0.925508        -0.774194
H       -6.857087        -1.610917        -1.049314
H       -6.130394        -0.059826        -1.430871
O       -4.816141        -1.549419        -0.944318
C       -4.563568        -1.999123        -2.240570
H       -4.630082        -1.178170        -2.951993
H       -5.300448        -2.750817        -2.526695
C       -3.180148        -2.614510        -2.314869
H       -3.065756        -3.343398        -1.516350
H       -3.088866        -3.134513        -3.261886
O       -2.145869        -1.676790        -2.283749
C       -1.707028        -1.250006        -1.023705
H       -1.479275        -2.102106        -0.387855
H       -2.454878        -0.649695        -0.523498
C       -0.450699        -0.435031        -1.250671
H       -0.674607         0.413192        -1.893452
H        0.291547        -1.047707        -1.755126
O        0.000000         0.000000         0.000000
C        1.130561         0.820889        -0.000000
H        1.087085         1.415471         0.902633
H        1.104574         1.502391        -0.846558
C        2.418406         0.000000         0.000000
H        2.482544        -0.639703        -0.871652
H        2.426231        -0.642245         0.871611
S        3.926118         1.007199         0.106650
C        4.109809         1.569578        -1.615945
H        4.136270         0.706965        -2.269844
H        3.267043         2.186689        -1.898246
C        5.404956         2.366504        -1.747135
H        6.251851         1.742914        -1.488489
H        5.384989         3.213101        -1.073339
S        5.587986         2.938433        -3.465732
C        7.238092         3.703551        -3.418605
H        7.543808         3.794680        -4.452524
H        7.925991         3.016447        -2.941954
C        7.266189         5.077091        -2.751339
H        6.604155         5.750886        -3.279268
H        6.916421         5.027843        -1.728904
S        8.902718         5.871571        -2.795656
C        9.805340         5.019922        -1.462987
H        9.723631         3.948112        -1.597739
H       10.843918         5.276069        -1.635087
C        9.395277         5.424716        -0.050077
H        8.360498         5.175493         0.157631
H       10.010620         4.904365         0.678482
H        9.518808         6.491097         0.097399
 

