%Mem=61440MB 
%NProc=8 

#P HF/6-31G(d)  SCF(Conver=8,XQC,MaxConventionalCycles=64,MaxCycle=128) NoSymm Test 
   Pop=mk IOp(6/33=2) GFInput GFPrint 

 MEP step - Input generated by PyRED DVE-DMDS-OPLS 

0 1 
C       -5.115576        -3.313361         4.108116
H       -4.404414        -2.989390         4.861936
H       -6.077605        -2.866249         4.342946
H       -5.211273        -4.391501         4.177201
C       -4.667144        -2.911310         2.710211
H       -5.398617        -3.240154         1.981636
H       -4.581281        -1.834722         2.624453
O       -3.457307        -3.529511         2.353054
C       -2.276842        -2.874880         2.713683
H       -1.564262        -3.633133         3.022730
H       -2.434724        -2.206843         3.555754
C       -1.681851        -2.098681         1.557887
H       -0.682110        -1.765249         1.816452
H       -1.607366        -2.750116         0.691540
O       -2.511332        -1.003982         1.272702
C       -2.355233        -0.385904         0.031985
H       -3.291223         0.120682        -0.174757
H       -2.190393        -1.122777        -0.749942
C       -1.241937         0.642485        -0.002612
H       -1.331802         1.301770         0.858090
H       -1.345385         1.248198        -0.903283
O        0.000000         0.000000         0.000000
C        1.099807         0.860063         0.000000
H        1.086439         1.500746         0.878321
H        1.071664         1.503670        -0.877146
C        2.353256         0.000000        -0.000000
H        2.342594        -0.674600        -0.846902
H        2.370615        -0.606528         0.896473
S        3.899261         0.950614         0.005966
C        4.037665         1.429727        -1.745872
H        3.991317         0.540074        -2.361029
H        3.216187         2.078299        -2.020318
C        5.365283         2.150350        -1.964904
H        6.189295         1.490744        -1.722126
H        5.421823         3.019617        -1.322628
S        5.495372         2.651692        -3.710017
C        7.190247         3.309791        -3.772650
H        7.433578         3.366995        -4.825722
H        7.867121         2.590955        -3.330264
C        7.344926         4.689285        -3.133818
H        6.665164         5.383765        -3.608663
H        7.095953         4.669424        -2.080297
S        9.021718         5.384358        -3.317212
C        9.778320         5.067979        -1.692234
H       10.702825         5.632628        -1.718542
H        9.156680         5.517416        -0.926550
C       10.069205         3.607057        -1.364882
H       10.592892         3.538121        -0.415631
H        9.157213         3.026824        -1.275872
H       10.687322         3.151609        -2.129852
 

