%Mem=61440MB 
%NProc=8 

#P HF/6-31G(d)  SCF(Conver=8,XQC,MaxConventionalCycles=64,MaxCycle=128) NoSymm Test 
   Pop=mk IOp(6/33=2) GFInput GFPrint 

 MEP step - Input generated by PyRED DVE-DMDS-OPLS 

0 1 
C       -2.763719         6.957752        -4.108116
H       -2.360620         6.288260        -4.861936
H       -3.809934         7.133375        -4.342946
H       -2.232641         7.900885        -4.177201
C       -2.621432         6.372525        -2.710211
H       -3.038522         7.057527        -1.981636
H       -3.159742         5.436236        -2.624453
O       -1.274087         6.197770        -2.353054
C       -0.671100         4.990109        -2.713683
H        0.345466         5.212172        -3.022730
H       -1.179243         4.528599        -3.555754
C       -0.619651         4.013456        -1.557887
H        0.016046         3.172891        -1.816452
H       -0.189667         4.508460        -0.691540
O       -1.922961         3.580113        -1.272702
C       -2.143943         2.982155        -0.031985
H       -3.202336         3.094006         0.174757
H       -1.591117         3.496486         0.749942
C       -1.807804         1.504310         0.002612
H       -2.254911         1.011536        -0.858090
H       -2.235802         1.063393         0.903283
O       -0.420251         1.331418         0.000000
C        0.000000         0.000000        -0.000000
H       -0.373506        -0.520717        -0.878321
H       -0.387344        -0.514769         0.877146
C        1.520145        -0.000000        -0.000000
H        1.893027         0.562279         0.846902
H        1.877619         0.490296        -0.896473
S        2.257081        -1.658530        -0.005966
C        2.100133        -2.131893         1.745872
H        2.565262        -1.372100         2.361029
H        1.055829        -2.201905         2.020318
C        2.787119        -3.477224         1.964904
H        3.839755        -3.399547         1.722126
H        2.341929        -4.225975         1.322628
S        2.610738        -3.964212         3.710017
C        3.635924        -5.465774         3.772650
H        3.804200        -5.650613         4.825722
H        4.600746        -5.256011         3.330264
C        2.982980        -6.690761         3.133818
H        2.029556        -6.878806         3.608663
H        2.788924        -6.533521         2.080297
S        3.972337        -8.212579         3.317212
C        4.775199        -8.379774         1.692234
H        5.218042        -9.368423         1.718542
H        4.008340        -8.398651         0.926550
C        5.841607        -7.339734         1.364882
H        6.312419        -7.579183         0.415631
H        5.417899        -6.345315         1.275872
H        6.608962        -7.313907         2.129852
 

