%Mem=61440MB 
%NProc=8 

#P HF/6-31G(d)  SCF(Conver=8,XQC,MaxConventionalCycles=64,MaxCycle=128) NoSymm Test 
   Pop=mk IOp(6/33=2) GFInput GFPrint 

 MEP step - Input generated by PyRED DVE-DMDS-OPLS 

0 1 
C       -2.310808         7.063139         0.479427
H       -2.310174         6.525607        -0.461919
H       -3.193326         7.694318         0.517642
H       -1.430842         7.695360         0.510477
C       -2.302014         6.089961         1.641946
H       -2.311223         6.628711         2.589053
H       -3.194987         5.468749         1.614372
O       -1.145708         5.309003         1.549687
C       -0.935917         4.391430         2.578248
H       -1.195445         4.827973         3.542267
H        0.123617         4.170754         2.584661
C       -1.698363         3.090867         2.404751
H       -1.550575         2.476165         3.292866
H       -2.767209         3.274950         2.310845
O       -1.221453         2.431023         1.272603
C       -1.872157         1.233438         0.977450
H       -2.926604         1.421257         0.771878
H       -1.813620         0.544945         1.818812
C       -1.242480         0.591984        -0.243730
H       -1.167644         1.330561        -1.037836
H       -1.892694        -0.205873        -0.584166
O       -0.000000         0.000000        -0.000000
C        1.119851         0.847313         0.000000
H        1.103915         1.510549         0.853439
H        1.110668         1.459050        -0.901312
C        2.379548        -0.000000        -0.000000
H        3.233016         0.650715        -0.155932
H        2.359969        -0.701141        -0.824385
S        2.776242        -0.865342         1.547639
C        1.521870        -2.176538         1.684493
H        1.804771        -2.713409         2.581931
H        0.554803        -1.726075         1.850506
C        1.401304        -3.148605         0.513908
H        1.057008        -2.624479        -0.366014
H        0.647288        -3.884394         0.773137
S        2.957137        -4.031983         0.168780
C        2.341895        -5.423602        -0.823653
H        1.510629        -5.891586        -0.309388
H        3.151989        -6.141722        -0.844894
C        1.950995        -5.042944        -2.249748
H        1.165536        -4.299295        -2.240590
H        2.807165        -4.625985        -2.764884
S        1.379961        -6.527913        -3.137627
C        1.197942        -5.891914        -4.831628
H        2.128472        -5.420828        -5.127299
H        1.082318        -6.776806        -5.446173
C        0.018499        -4.947995        -5.046736
H        0.118339        -4.040542        -4.461554
H       -0.040252        -4.659735        -6.092600
H       -0.914807        -5.425432        -4.771485
 

