%Mem=61440MB 
%NProc=8 

#P HF/6-31G(d)  SCF(Conver=8,XQC,MaxConventionalCycles=64,MaxCycle=128) NoSymm Test 
   Pop=mk IOp(6/33=2) GFInput GFPrint 

 MEP step - Input generated by PyRED DVE-DMDS-OPLS 

0 1 
C        5.628323         0.967068        -3.779828
H        5.675481         1.889865        -4.349205
H        6.644832         0.684493        -3.523813
H        5.211168         0.193426        -4.415342
C        4.797096         1.115593        -2.512940
H        4.823847         0.194785        -1.947471
H        5.201156         1.904783        -1.882038
O        3.438317         1.365640        -2.767978
C        3.119220         2.651997        -3.203218
H        3.391634         2.786550        -4.248104
H        3.648642         3.398420        -2.616291
C        1.631660         2.876298        -3.057132
H        1.357453         3.787460        -3.588292
H        1.099382         2.048278        -3.519486
O        1.313707         2.998793        -1.703744
C       -0.041416         3.198042        -1.415683
H       -0.512264         3.787773        -2.201220
H       -0.088590         3.766004        -0.495914
C       -0.814409         1.904070        -1.226006
H       -0.618494         1.225823        -2.051505
H       -1.877868         2.131174        -1.235124
O       -0.503824         1.306883         0.000000
C        0.000000         0.000000        -0.000000
H       -0.389513        -0.556708        -0.847574
H       -0.365645        -0.480082         0.898412
C        1.524632        -0.000000        -0.000000
H        1.877635         0.475968         0.906204
H        1.919035         0.564473        -0.832020
S        2.243099        -1.669156        -0.007196
C        2.105701        -2.105050        -1.769473
H        1.058184        -2.199418        -2.033060
H        2.532762        -1.307764        -2.363160
C        2.791852        -3.433993        -2.091128
H        2.480565        -3.740528        -3.082296
H        2.468082        -4.210368        -1.409131
S        4.613370        -3.393179        -2.152655
C        5.125904        -3.989327        -0.508611
H        4.572109        -3.471428         0.260205
H        6.159948        -3.680294        -0.422657
C        5.005512        -5.503255        -0.348308
H        3.970525        -5.811150        -0.427829
H        5.546826        -6.013876        -1.133116
S        5.541804        -6.113262         1.280467
C        7.357052        -6.026889         1.173188
H        7.656430        -5.028461         0.878506
H        7.691159        -6.161780         2.195101
C        7.999652        -7.076526         0.271223
H        7.694320        -6.961656        -0.762866
H        9.081592        -6.983393         0.306094
H        7.732335        -8.076868         0.591050
 

