%Mem=61440MB 
%NProc=8 

#P HF/6-31G(d)  SCF(Conver=8,XQC,MaxConventionalCycles=64,MaxCycle=128) NoSymm Test 
   Pop=mk IOp(6/33=2) GFInput GFPrint 

 MEP step - Input generated by PyRED DVE-DMDS-OPLS 

0 1 
C       -3.949425         6.735322        -3.039062
H       -3.781312         6.677516        -1.969050
H       -3.092845         7.222366        -3.492176
H       -4.824177         7.357668        -3.203020
C       -4.163050         5.361275        -3.659903
H       -5.012637         4.862339        -3.196179
H       -4.383708         5.467435        -4.714473
O       -3.029956         4.540502        -3.590029
C       -2.771061         3.941506        -2.357285
H       -3.643805         3.387093        -2.014914
H       -2.525485         4.674326        -1.593673
C       -1.583165         3.013245        -2.555543
H       -1.812641         2.278890        -3.322008
H       -0.736355         3.594189        -2.895376
O       -1.206571         2.392822        -1.357662
C       -1.858189         1.194337        -1.048572
H       -1.765914         0.488130        -1.869975
H       -2.918756         1.365370        -0.869556
C       -1.249572         0.591054         0.202460
H       -1.901514        -0.201800         0.550601
H       -1.195617         1.350188         0.979272
O        0.000000         0.000000         0.000000
C        1.115919         0.847721         0.000000
H        1.108605         1.460104         0.901758
H        1.102280         1.509999        -0.854343
C        2.375697         0.000000         0.000000
H        2.352219        -0.698694         0.827857
H        3.231627         0.649797         0.144243
S        2.726632        -0.901500        -1.538884
C        1.621163        -2.346352        -1.414059
H        1.801469        -2.831640        -0.462856
H        0.593361        -2.022620        -1.437848
C        1.913952        -3.294466        -2.573400
H        2.952145        -3.599651        -2.578246
H        1.729471        -2.794068        -3.516354
S        0.838940        -4.759261        -2.626766
C        1.369258        -5.725419        -1.180588
H        0.697892        -6.575073        -1.167507
H        1.182792        -5.157826        -0.276900
C        2.817712        -6.212177        -1.163091
H        3.500684        -5.372891        -1.146418
H        2.967166        -6.770156        -0.244429
S        3.201306        -7.308923        -2.563980
C        4.699975        -8.132818        -1.947112
H        4.483278        -8.588150        -0.986972
H        4.873711        -8.941189        -2.647690
C        5.938186        -7.245093        -1.858493
H        5.805095        -6.440204        -1.143781
H        6.794480        -7.831508        -1.537126
H        6.168246        -6.804565        -2.821660
 

