%Mem=61440MB 
%NProc=8 

#P HF/6-31G(d)  SCF(Conver=8,XQC,MaxConventionalCycles=64,MaxCycle=128) NoSymm Test 
   Pop=mk IOp(6/33=2) GFInput GFPrint 

 MEP step - Input generated by PyRED DVE-DMDS-OPLS 

0 1 
C       -6.923108         6.494723         2.459817
H       -6.181526         7.092436         1.941904
H       -7.822131         6.469254         1.854664
H       -7.155208         6.974669         3.405492
C       -6.403956         5.089391         2.690767
H       -5.506655         5.116372         3.305992
H       -7.143542         4.493463         3.222686
O       -6.135361         4.509582         1.444367
C       -5.625344         3.208718         1.469384
H       -5.968600         2.705722         0.574490
H       -5.997521         2.652805         2.325602
C       -4.105462         3.213904         1.483837
H       -3.741775         3.743336         0.607357
H       -3.729793         3.734095         2.362488
O       -3.685548         1.879743         1.495324
C       -2.303265         1.665578         1.464192
H       -2.114159         0.743898         2.000518
H       -1.769679         2.461170         1.977213
C       -1.797449         1.552294         0.030496
H       -1.984414         2.473894        -0.506080
H       -2.331520         0.757472        -0.483067
O       -0.413519         1.336244         0.000000
C        0.000000         0.000000         0.000000
H       -0.386370        -0.509671        -0.879627
H       -0.367474        -0.530764         0.873454
C        1.520048        -0.000000         0.000000
H        1.879217         0.474221         0.904154
H        1.888372         0.583003        -0.833803
S        2.241487        -1.667524        -0.021619
C        2.183943        -2.098919        -1.790587
H        2.254608        -3.178556        -1.817775
H        1.220951        -1.833512        -2.205479
C        3.310405        -1.466255        -2.605091
H        4.273548        -1.733475        -2.191768
H        3.242354        -0.386572        -2.571683
S        3.249790        -1.881412        -4.377034
C        3.910878        -3.578116        -4.418780
H        3.598323        -3.969418        -5.378286
H        3.432644        -4.183937        -3.660941
C        5.430359        -3.647679        -4.280715
H        5.908076        -3.041450        -5.038199
H        5.742379        -3.256373        -3.320867
S        6.090646        -5.342669        -4.323849
C        5.997312        -5.774977        -6.090162
H        6.161050        -6.845839        -6.111142
H        4.990256        -5.608031        -6.452587
C        7.019716        -5.072648        -6.978659
H        8.029121        -5.273265        -6.639375
H        6.925633        -5.425459        -8.001832
H        6.875824        -3.997978        -6.988403
 

