%Mem=61440MB 
%NProc=8 

#P HF/6-31G(d)  SCF(Conver=8,XQC,MaxConventionalCycles=64,MaxCycle=128) NoSymm Test 
   Pop=mk IOp(6/33=2) GFInput GFPrint 

 MEP step - Input generated by PyRED DVE-DMDS-OPLS 

0 1 
C       -5.201557        -2.665484        -5.612539
H       -5.954917        -1.886992        -5.654617
H       -4.788291        -2.801084        -6.607169
H       -5.682722        -3.588111        -5.308764
C       -4.109122        -2.293138        -4.629872
H       -3.346055        -3.068955        -4.597716
H       -3.621223        -1.371574        -4.941341
O       -4.688759        -2.145767        -3.363216
C       -3.822554        -1.781326        -2.329428
H       -2.824237        -2.179739        -2.491169
H       -4.206302        -2.213103        -1.414077
C       -3.754803        -0.270746        -2.174205
H       -3.393015         0.196955        -3.088115
H       -4.751978         0.117347        -1.977854
O       -2.894732         0.007809        -1.109976
C       -2.757606         1.364885        -0.807843
H       -3.724195         1.783929        -0.528120
H       -2.391780         1.913261        -1.673576
C       -1.791746         1.541864         0.346440
H       -2.086599         0.895481         1.168570
H       -1.851113         2.568662         0.687792
O       -0.455463         1.323844         0.000000
C        0.000000         0.000000        -0.000000
H       -0.355078        -0.522967        -0.881682
H       -0.372087        -0.527013         0.873676
C        1.518695         0.000000        -0.000000
H        1.890703         0.574466        -0.840152
H        1.867318        -1.019114        -0.124035
S        2.304725         0.597024         1.525566
C        2.296784         2.401881         1.280864
H        2.813279         2.611973         0.350192
H        1.279255         2.746811         1.189980
C        3.017497         3.141286         2.409271
H        3.198844         4.155908         2.075440
H        3.988147         2.701655         2.605111
S        2.095301         3.325547         3.970109
C        2.646828         1.903525         4.961139
H        2.629727         1.015562         4.343624
H        1.881821         1.773853         5.716033
C        4.023652         2.050871         5.613108
H        4.351484         1.082185         5.976466
H        4.755865         2.373594         4.884095
S        4.131076         3.238534         6.983207
C        3.430634         2.260474         8.347927
H        2.411808         1.978556         8.110653
H        4.010171         1.351799         8.464935
C        3.456512         3.072686         9.639903
H        2.869860         3.979492         9.543494
H        3.041952         2.487657        10.454578
H        4.469934         3.351716         9.906286
 

