%Mem=61440MB 
%NProc=8 

#P HF/6-31G(d)  SCF(Conver=8,XQC,MaxConventionalCycles=64,MaxCycle=128) NoSymm Test 
   Pop=mk IOp(6/33=2) GFInput GFPrint 

 MEP step - Input generated by PyRED DVE-DMDS-OPLS 

0 1 
C       -7.550558        -0.966923        -1.924812
H       -6.904366        -1.381596        -1.159648
H       -8.429376        -0.555855        -1.441327
H       -7.861773        -1.768501        -2.587657
C       -6.822198         0.112807        -2.700937
H       -5.950268        -0.309017        -3.196691
H       -7.467713         0.525089        -3.476154
O       -6.450858         1.119997        -1.805096
C       -5.818501         2.234284        -2.355073
H       -5.950270         3.043895        -1.649120
H       -6.293646         2.521741        -3.292755
C       -4.332161         2.041697        -2.593327
H       -4.147549         1.175521        -3.226183
H       -3.944797         2.915727        -3.118028
O       -3.691264         1.889792        -1.365320
C       -2.319143         1.659840        -1.442592
H       -1.812480         2.476388        -1.953964
H       -2.115132         0.746390        -1.999400
C       -1.796939         1.551764        -0.019493
H       -2.326666         0.763244         0.507042
H       -1.986155         2.482123         0.499234
O       -0.413028         1.335585         0.000000
C        0.000000         0.000000        -0.000000
H       -0.367287        -0.530780        -0.873735
H       -0.386316        -0.510378         0.879287
C        1.520119        -0.000000        -0.000000
H        1.888487         0.580366         0.835612
H        1.879216         0.477236        -0.902617
S        2.242560        -1.667240         0.016063
C        2.183531        -2.106396         1.783051
H        1.219987        -1.843071         2.198118
H        2.255616        -3.185998         1.805173
C        3.309593        -1.476927         2.600521
H        3.246893        -0.396969         2.564209
H        4.274112        -1.754440         2.194605
S        3.257426        -1.891628         4.370829
C        3.857543        -3.612841         4.360418
H        4.808470        -3.644439         3.843383
H        3.163138        -4.250947         3.831662
C        4.006822        -4.103555         5.798616
H        4.669183        -3.457087         6.359059
H        3.045558        -4.083067         6.296887
S        4.571771        -5.826851         5.923721
C        6.356576        -5.694868         5.588687
H        6.670839        -6.715859         5.407393
H        6.512032        -5.152787         4.663804
C        7.179353        -5.087981         6.721276
H        6.894585        -4.061178         6.921885
H        7.055516        -5.655631         7.635983
H        8.232943        -5.090612         6.456348
 

