%Mem=61440MB 
%NProc=8 

#P HF/6-31G(d)  SCF(Conver=8,XQC,MaxConventionalCycles=64,MaxCycle=128) NoSymm Test 
   Pop=mk IOp(6/33=2) GFInput GFPrint 

 MEP step - Input generated by PyRED DVE-DMDS-OPLS 

0 1 
C       -5.651897         2.578972         6.671848
H       -5.448928         3.387182         7.367642
H       -6.223388         2.974664         5.839838
H       -6.256129         1.832642         7.174818
C       -4.356775         1.963621         6.180098
H       -3.747597         2.716427         5.683490
H       -3.776984         1.578430         7.017131
O       -4.671956         0.919605         5.301323
C       -3.587147         0.247925         4.731265
H       -3.890071        -0.777195         4.561189
H       -2.732582         0.234371         5.402485
C       -3.188172         0.873351         3.404619
H       -4.034615         0.848030         2.722093
H       -2.903267         1.915562         3.538522
O       -2.116420         0.136757         2.896477
C       -1.643377         0.561316         1.655182
H       -1.287344         1.589350         1.710917
H       -2.429562         0.525651         0.904485
C       -0.513278        -0.368868         1.250404
H       -0.891378        -1.379461         1.168325
H        0.255461        -0.364213         2.017247
O        0.000000         0.000000         0.000000
C        1.127715         0.829557         0.000000
H        1.122433         1.504533         0.850484
H        1.071156         1.433614        -0.896266
C        2.408335         0.000000        -0.000000
H        2.388696        -0.703064        -0.822584
H        2.479368        -0.580255         0.911937
S        3.919383         1.008995        -0.062627
C        4.072927         1.379003        -1.840021
H        3.111951         1.668990        -2.242776
H        4.713700         2.249741        -1.890776
C        4.666478         0.227536        -2.649010
H        4.024925        -0.642565        -2.597072
H        5.626548        -0.064297        -2.245142
S        4.819298         0.593242        -4.426580
C        6.316677         1.628511        -4.497158
H        6.285142         2.376092        -3.715629
H        6.253076         2.158329        -5.437617
C        7.615508         0.827436        -4.420327
H        7.666046         0.283096        -3.486762
H        7.658688         0.095318        -5.216375
S        9.112408         1.868866        -4.487292
C        9.651408         1.697435        -6.217699
H       10.631154         2.160142        -6.234088
H        9.795805         0.645133        -6.432641
C        8.750990         2.344867        -7.264670
H        7.781246         1.861877        -7.313430
H        8.596832         3.396128        -7.050417
H        9.206879         2.259341        -8.247020
 

