%Mem=61440MB 
%NProc=8 

#P HF/6-31G(d)  SCF(Conver=8,XQC,MaxConventionalCycles=64,MaxCycle=128) NoSymm Test 
   Pop=mk IOp(6/33=2) GFInput GFPrint 

 MEP step - Input generated by PyRED DVE-DMDS-OPLS 

0 1 
C       -3.352726         7.492249        -3.036428
H       -4.397593         7.603839        -2.766927
H       -2.761619         8.113604        -2.372344
H       -3.232436         7.862894        -4.050039
C       -2.891054         6.043212        -2.952925
H       -3.497012         5.413480        -3.602087
H       -1.865185         5.967403        -3.290286
O       -2.899854         5.532812        -1.648074
C       -4.148754         5.189028        -1.125889
H       -4.691554         4.553502        -1.822766
H       -4.751054         6.077058        -0.940868
C       -3.965470         4.448655         0.183936
H       -3.324314         5.029623         0.841943
H       -4.935538         4.351697         0.659069
O       -3.471973         3.151815         0.025531
C       -2.080032         2.996566         0.005616
H       -1.630794         3.455685         0.883110
H       -1.641759         3.451037        -0.872619
C       -1.804675         1.507350         0.016229
H       -2.263545         1.041817        -0.853375
H       -2.241800         1.056769         0.904348
O       -0.418261         1.330351         0.000000
C        0.000000         0.000000         0.000000
H       -0.387168        -0.517653        -0.875681
H       -0.372452        -0.521194         0.878768
C        1.520261        -0.000000        -0.000000
H        1.878869         0.478389         0.902111
H        1.889809         0.578081        -0.836757
S        2.242552        -1.667812        -0.014887
C        2.192414        -2.104083        -1.782982
H        2.238062        -3.184174        -1.815886
H        1.237771        -1.818063        -2.204078
C        3.338182        -1.493081        -2.588110
H        4.293958        -1.797362        -2.181271
H        3.300332        -0.413507        -2.532095
S        3.286113        -1.917158        -4.363510
C        4.549083        -3.220511        -4.513166
H        5.471336        -2.862131        -4.074112
H        4.719246        -3.319324        -5.577350
C        4.145519        -4.573043        -3.931558
H        3.972696        -4.507112        -2.864428
H        3.222302        -4.906233        -4.387581
S        5.354831        -5.895071        -4.242088
C        6.646284        -5.513885        -3.017259
H        7.081645        -4.545756        -3.231194
H        6.192179        -5.468836        -2.034059
C        7.728783        -6.589438        -3.049683
H        7.317958        -7.565004        -2.815509
H        8.197413        -6.644176        -4.026072
H        8.498315        -6.361727        -2.319358
 

