%chk=IsoP_rdkit_295_gaussian.chk
%nproc=2
%mem=4000Mb
#p opt pm3

Conformer number 295. Energy MM = 23.242 kcal/mol

0 1
C  -0.6851    -0.5381    -0.6884
H  -0.4663    -1.2414    -1.5031
H  -0.7179    -1.1572    0.2161
C  -2.0323    0.1067    -0.9415
C  -2.3406    0.3945    -2.3885
H  -1.6006    1.0834    -2.8079
H  -2.3244    -0.5320    -2.9716
H  -3.3277    0.8505    -2.5195
C  -2.9299    0.3970    0.0211
H  -3.8816    0.8406    -0.2702
C  -2.7775    0.2028    1.4966
H  -1.7699    -0.0949    1.7953
H  -3.0063    1.1406    2.0131
H  -3.4814    -0.5586    1.8458
C  3.7960    -0.9197    0.8857
H  4.5551    -0.2167    1.2441
H  4.1193    -1.2862    -0.0943
H  3.7647    -1.7762    1.5671
C  2.4492    -0.2472    0.8296
C  1.9661    0.2815    2.1521
H  2.6069    1.1042    2.4851
H  0.9368    0.6460    2.1243
H  2.0009    -0.5102    2.9084
C  1.7706    -0.1643    -0.3315
H  2.2153    -0.6024    -1.2252
C  0.4392    0.4961    -0.5724
H  0.5159    1.0745    -1.5018
H  0.2057    1.2265    0.2091

