%Mem=61440MB 
%NProc=8 

#P HF/6-31G(d)  Opt=(Tight,MaxCycle=55) GFInput GFPrint SCF(Conver=8,XQC,MaxConventionalCycles=64,MaxCycle=128) Test 

 Optimization step - Input generated by PyRED DVE-DMDS-OPLS 

0 1 
C       -7.842000        -0.116000        -0.849000
H       -8.148000         0.934000        -0.869000
H       -7.232000        -0.311000        -1.735000
H       -8.748000        -0.727000        -0.913000
C       -7.067000        -0.459000         0.414000
H       -7.677000        -0.258000         1.308000
H       -6.815000        -1.524000         0.420000
O       -5.829000         0.221000         0.521000
C       -5.938000         1.579000         0.900000
H       -6.502000         1.653000         1.844000
H       -6.468000         2.172000         0.142000
C       -4.552000         2.165000         1.103000
H       -4.645000         3.080000         1.696000
H       -3.955000         1.448000         1.683000
O       -3.899000         2.559000        -0.084000
C       -3.424000         1.507000        -0.909000
H       -3.286000         1.936000        -1.905000
H       -4.160000         0.703000        -0.983000
C       -2.089000         0.957000        -0.413000
H       -2.149000         0.696000         0.652000
H       -1.308000         1.714000        -0.521000
O       -1.700000        -0.163000        -1.188000
C       -2.222000        -1.400000        -0.728000
H       -2.330000        -2.041000        -1.607000
H       -3.219000        -1.251000        -0.289000
C       -1.318000        -2.077000         0.296000
H       -1.851000        -2.928000         0.733000
H       -1.096000        -1.392000         1.122000
S        0.223000        -2.799000        -0.355000
C        1.214000        -1.317000        -0.739000
H        1.999000        -1.667000        -1.416000
H        0.583000        -0.620000        -1.293000
C        1.827000        -0.617000         0.472000
H        1.064000        -0.426000         1.231000
H        2.215000         0.362000         0.171000
S        3.150000        -1.540000         1.322000
C        4.566000        -1.173000         0.235000
H        4.258000        -1.271000        -0.810000
H        5.300000        -1.960000         0.424000
C        5.187000         0.195000         0.493000
H        4.439000         0.983000         0.365000
H        5.558000         0.245000         1.521000
S        6.574000         0.459000        -0.665000
C        7.274000         2.004000         0.001000
H        7.505000         1.855000         1.060000
H        8.230000         2.120000        -0.519000
C        6.408000         3.240000        -0.202000
H        6.194000         3.398000        -1.262000
H        5.453000         3.154000         0.326000
H        6.918000         4.129000         0.183000
 

