%Mem=61440MB 
%NProc=8 

#P HF/6-31G(d)  Opt=(Tight,MaxCycle=55) GFInput GFPrint SCF(Conver=8,XQC,MaxConventionalCycles=64,MaxCycle=128) Test 

 Optimization step - Input generated by PyRED DVE-DMDS-OPLS 

0 1 
C       -9.817833        -0.136193        -0.572556
H      -10.028031        -0.630910         0.368955
H      -10.380040         0.791746        -0.608836
H      -10.157241        -0.778363        -1.377204
C       -8.332973         0.136976        -0.707681
H       -8.123915         0.645640        -1.647230
H       -7.995907         0.789082         0.095739
O       -7.655446        -1.088483        -0.671281
C       -6.262967        -1.024044        -0.764528
H       -5.946001        -0.179528        -1.371039
H       -5.926144        -1.928108        -1.255220
C       -5.622051        -0.938886         0.611157
H       -5.958730        -0.049768         1.141234
H       -5.915461        -1.804872         1.200654
O       -4.237559        -0.905446         0.432375
C       -3.495178        -0.870486         1.615334
H       -3.698110        -1.761746         2.209146
H       -3.767168        -0.001246         2.210719
C       -2.014937        -0.819159         1.294669
H       -1.767100        -1.614370         0.596914
H       -1.460516        -0.989824         2.210012
O       -1.587925         0.418771         0.806410
C       -1.753949         0.660934        -0.562459
H       -2.791575         0.886944        -0.784248
H       -1.472654        -0.216300        -1.137640
C       -0.890811         1.844548        -0.963070
H       -1.131522         2.704955        -0.349871
H       -1.113725         2.106405        -1.991299
S        0.903327         1.561021        -0.914976
C        1.292687         1.860554         0.838914
H        0.948585         2.858722         1.088539
H        0.756216         1.153360         1.451024
C        2.794504         1.784773         1.118650
H        2.970301         2.219820         2.095184
H        3.353450         2.382197         0.408402
S        3.512001         0.112846         1.220948
C        4.119859        -0.193758        -0.465756
H        3.357309         0.100551        -1.174270
H        4.215362        -1.269631        -0.538486
C        5.443602         0.487097        -0.821511
H        5.594297         0.434444        -1.894997
H        5.411030         1.537806        -0.563254
S        6.923844        -0.178447        -0.005919
C        7.245742        -1.654905        -1.018901
H        6.396448        -2.325658        -0.968156
H        7.372113        -1.353362        -2.052509
C        8.499946        -2.367515        -0.520180
H        8.384536        -2.687547         0.509389
H        8.693756        -3.246209        -1.126932
H        9.367293        -1.719290        -0.578097
 

