%Mem=61440MB 
%NProc=8 

#P HF/6-31G(d)  Opt=(Tight,MaxCycle=55) GFInput GFPrint SCF(Conver=8,XQC,MaxConventionalCycles=64,MaxCycle=128) Test 

 Optimization step - Input generated by PyRED DVE-DMDS-OPLS 

0 1 
C        4.534838         5.239411         0.359330
H        4.050502         5.365307        -0.602364
H        4.064379         5.908025         1.073462
H        5.576464         5.521166         0.255310
C        4.422015         3.801404         0.825061
H        4.896780         3.677832         1.796866
H        3.376181         3.523562         0.937229
O        5.056457         2.982561        -0.119076
C        5.025810         1.609410         0.139577
H        5.026622         1.406985         1.207661
H        5.934486         1.188630        -0.273811
C        3.805914         0.958201        -0.503005
H        2.897624         1.378129        -0.089504
H        3.805445         1.159053        -1.570643
O        3.769461        -0.419377        -0.248202
C        4.428137        -1.237045        -1.172970
H        5.499021        -1.039106        -1.177431
H        4.047930        -1.053465        -2.174738
C        4.199871        -2.690866        -0.813197
H        4.511092        -2.868232         0.212687
H        4.816634        -3.304792        -1.460711
O        2.874636        -3.089047        -1.011385
C        2.036262        -3.042494         0.111228
H        2.047617        -2.055503         0.553894
H        2.372222        -3.753392         0.862377
C        0.641088        -3.413717        -0.363991
H        0.650508        -4.418647        -0.766160
H        0.335860        -2.752661        -1.164402
S       -0.599752        -3.417299         0.963844
C       -0.967023        -1.645201         1.169940
H       -1.426300        -1.568078         2.147091
H       -0.047224        -1.077767         1.206825
C       -1.896147        -1.085731         0.094499
H       -2.814718        -1.656307         0.052511
H       -1.433355        -1.161318        -0.880921
S       -2.270398         0.684622         0.302867
C       -3.532775         0.661409         1.612444
H       -3.536678         1.662988         2.021980
H       -3.204679        -0.003027         2.404114
C       -4.951114         0.275039         1.187538
H       -4.965273        -0.675181         0.667700
H       -5.543174         0.145742         2.086848
S       -5.843958         1.508823         0.192508
C       -5.568251         0.943134        -1.517469
H       -4.512731         0.981969        -1.742665
H       -5.899305        -0.085686        -1.599393
C       -6.354688         1.827255        -2.481096
H       -7.418251         1.789081        -2.272917
H       -6.032823         2.860791        -2.415460
H       -6.197204         1.491202        -3.500968
 

