%Mem=61440MB 
%NProc=8 

#P HF/6-31G(d)  SCF(Conver=8,XQC,MaxConventionalCycles=64,MaxCycle=128) NoSymm Test 
   Pop=mk IOp(6/33=2) GFInput GFPrint 

 MEP step - Input generated by PyRED DVE-DMDS-OPLS 

0 1 
C       -3.796578         3.135012         1.589215
H       -2.955751         3.797878         1.771264
H       -4.693727         3.734990         1.483194
H       -3.918501         2.491603         2.453618
C       -3.557298         2.306350         0.342075
H       -3.438022         2.953979        -0.525639
H       -2.654084         1.717483         0.436522
O       -4.675685         1.474404         0.158521
C       -4.750929         0.766317        -1.039209
H       -4.471765         1.394806        -1.882514
H       -5.791858         0.486931        -1.158937
C       -3.913178        -0.498332        -1.060691
H       -4.066184        -1.043950        -0.132298
H       -4.242862        -1.134228        -1.883699
O       -2.565433        -0.169082        -1.221384
C       -1.680361        -1.238717        -1.109107
H       -1.836115        -1.948524        -1.922006
H       -1.827642        -1.764896        -0.169299
C       -0.264507        -0.715624        -1.170214
H       -0.154362        -0.075360        -2.042780
H        0.418128        -1.555809        -1.271491
O        0.000000         0.000000         0.000000
C        1.147974         0.787743         0.000000
H        1.091819         1.393063         0.894518
H        1.149127         1.456205        -0.860012
C        2.457055        -0.000000        -0.000000
H        3.270000         0.709663         0.098753
H        2.595588        -0.529215        -0.935569
S        2.501250        -1.191451         1.374406
C        4.228383        -1.756692         1.285422
H        4.244196        -2.696145         1.822921
H        4.484215        -1.976894         0.256547
C        5.235146        -0.778476         1.888533
H        4.976793        -0.551805         2.915299
H        5.224935         0.158051         1.346098
S        6.960822        -1.352026         1.809811
C        6.998373        -2.491161         3.230305
H        6.114623        -3.117770         3.204143
H        6.963003        -1.918088         4.148475
C        8.217617        -3.412814         3.210735
H        8.137152        -4.107273         4.039971
H        8.218239        -3.998356         2.299733
S        9.852452        -2.625665         3.265800
C        9.850934        -1.882804         4.925516
H        9.104867        -1.099548         4.973147
H        9.589712        -2.644090         5.652213
C       11.229165        -1.305261         5.237539
H       11.226025        -0.852125         6.223550
H       11.990190        -2.077225         5.221564
H       11.504716        -0.541983         4.518226
 

