%Mem=61440MB 
%NProc=8 

#P HF/6-31G(d)  SCF(Conver=8,XQC,MaxConventionalCycles=64,MaxCycle=128) NoSymm Test 
   Pop=mk IOp(6/33=2) GFInput GFPrint 

 MEP step - Input generated by PyRED DVE-DMDS-OPLS 

0 1 
C       -0.191989        -1.194414        -8.136634
H        0.061303        -1.639660        -9.094115
H       -0.316733        -2.000471        -7.421451
H       -1.141163        -0.679571        -8.239015
C        0.895480        -0.216228        -7.712767
H        1.844919        -0.734161        -7.588222
H        1.031388         0.534209        -8.481065
O        0.580853         0.491048        -6.544756
C        0.710537        -0.203574        -5.342319
H        1.690631        -0.670300        -5.265748
H       -0.035897        -0.989170        -5.255069
C        0.545695         0.810799        -4.222301
H        1.327458         1.554671        -4.300696
H       -0.408614         1.319070        -4.323426
O        0.664937         0.203986        -2.964687
C       -0.526520        -0.252073        -2.384517
H       -1.005511        -0.989690        -3.025918
H       -1.220903         0.573100        -2.245636
C       -0.228538        -0.900925        -1.045762
H        0.595340        -1.596612        -1.159147
H       -1.098414        -1.468883        -0.740335
O        0.000000         0.000000        -0.000000
C        1.165013         0.773331        -0.000000
H        1.095964         1.379265         0.894133
H        1.182866         1.446478        -0.849425
C        2.482250        -0.000000         0.000000
H        3.285419         0.717598         0.128877
H        2.641966        -0.477531        -0.957962
S        2.676050        -1.336136         1.218759
C        2.385088        -0.493450         2.808676
H        3.073222        -0.942512         3.512771
H        2.664193         0.548184         2.715817
C        0.946125        -0.628099         3.305485
H        0.688414        -1.671694         3.429239
H        0.254768        -0.223383         2.580769
S        0.621552         0.278976         4.851319
C        1.384052        -0.782673         6.119400
H        1.492695        -0.141910         6.985005
H        2.380716        -1.072532         5.815020
C        0.551164        -2.014808         6.467019
H       -0.445656        -1.725364         6.770443
H        0.443215        -2.655752         5.601447
S        1.308977        -3.078182         7.734812
C        1.023156        -2.149900         9.274767
H        1.658208        -2.639988        10.003207
H        1.398800        -1.139829         9.165333
C       -0.422492        -2.143292         9.762780
H       -0.785172        -3.153741         9.910483
H       -0.492084        -1.612603        10.708230
H       -1.083499        -1.648354         9.060096
 

