%Mem=61440MB 
%NProc=8 

#P HF/6-31G(d)  SCF(Conver=8,XQC,MaxConventionalCycles=64,MaxCycle=128) NoSymm Test 
   Pop=mk IOp(6/33=2) GFInput GFPrint 

 MEP step - Input generated by PyRED DVE-DMDS-OPLS 

0 1 
C       -4.563509         5.951478         1.924855
H       -3.796149         5.925340         1.159695
H       -5.520202         6.112821         1.441366
H       -4.363925         6.787863         2.587707
C       -4.578008         4.649124         2.700973
H       -3.620868         4.500545         3.196731
H       -5.343451         4.676843         3.476186
O       -4.844998         3.609398         1.805123
C       -4.958120         2.333184         2.355092
H       -5.526732         1.741992         1.649136
H       -5.512436         2.366759         3.292775
C       -3.625783         1.646761         2.593340
H       -2.981539         2.254455         3.226196
H       -3.803901         0.707476         3.118038
O       -3.012151         1.407442         1.365329
C       -1.752546         0.816689         1.442597
H       -1.799837        -0.143115         1.953965
H       -1.065473         1.452253         1.999407
C       -1.261477         0.608784         0.019496
H       -1.249094         1.558640        -0.507034
H       -1.945987        -0.049102        -0.499233
O        0.000000         0.000000         0.000000
C        1.098986         0.864065         0.000000
H        1.098510         1.509533         0.873734
H        1.071258         1.503562        -0.879288
C        2.349649        -0.000000         0.000000
H        2.322829        -0.686876        -0.835612
H        2.373821        -0.596759         0.902616
S        3.891720         0.961056        -0.016059
C        4.092785         1.355916        -1.783048
H        3.150362         1.686964        -2.198119
H        4.765759         2.203171        -1.805172
C        4.661439         0.197949        -2.600514
H        3.995984        -0.654935        -2.564200
H        5.612729        -0.121980        -2.194595
S        4.854247         0.568787        -4.370823
C        6.326356         1.643779        -4.360413
H        7.126681         1.129253        -3.843376
H        6.117751         2.563489        -3.831661
C        6.728107         1.962651        -5.798613
H        6.905592         1.054275        -6.359052
H        5.925592         2.492194        -6.296887
S        8.172470         3.059343        -5.923717
C        9.565874         1.936235        -5.588682
H       10.404782         2.597606        -5.407378
H        9.385636         1.401872        -4.663804
C        9.897845         0.969250        -6.721276
H        9.079897         0.286334        -6.921900
H       10.118633         1.506678        -7.635976
H       10.766164         0.372526        -6.456346
 

