%Mem=61440MB 
%NProc=8 

#P HF/6-31G(d)  SCF(Conver=8,XQC,MaxConventionalCycles=64,MaxCycle=128) NoSymm Test 
   Pop=mk IOp(6/33=2) GFInput GFPrint 

 MEP step - Input generated by PyRED DVE-DMDS-OPLS 

0 1 
C       -6.410274        -0.107067         3.184008
H       -6.552844         0.863639         3.646053
H       -6.241887         0.044667         2.123621
H       -7.329023        -0.672656         3.308426
C       -5.241646        -0.865004         3.798499
H       -5.405369        -1.023888         4.862956
H       -5.153467        -1.839807         3.335235
O       -4.009459        -0.227611         3.592754
C       -3.694646         0.799735         4.485121
H       -3.593022         0.399622         5.494530
H       -4.467606         1.562397         4.501426
C       -2.386401         1.440055         4.068501
H       -2.063975         2.113280         4.855201
H       -1.628000         0.669830         3.955024
O       -2.513638         2.205042         2.905403
C       -2.243537         1.572686         1.682011
H       -2.921926         1.982387         0.944617
H       -2.426586         0.507808         1.742249
C       -0.811592         1.862676         1.252852
H       -0.109891         1.509184         2.005060
H       -0.677486         2.932871         1.160850
O       -0.543384         1.291908        -0.000000
C        0.000000         0.000000         0.000000
H       -0.367385        -0.500199        -0.885897
H       -0.350279        -0.556868         0.866902
C        1.525391        -0.000000        -0.000000
H        1.873083        -1.012065         0.178468
H        1.904887         0.607079         0.813965
S        2.328164         0.468326        -1.562879
C        2.052736         2.262812        -1.673374
H        2.249051         2.508418        -2.709606
H        1.008476         2.463026        -1.483734
C        2.917102         3.122212        -0.748768
H        2.870370         2.754045         0.267859
H        2.520930         4.131351        -0.728996
S        4.686592         3.195448        -1.166544
C        4.707348         4.459091        -2.474875
H        3.879033         4.291842        -3.152491
H        5.615992         4.284373        -3.036443
C        4.693425         5.889545        -1.941029
H        3.816734         6.057354        -1.329953
H        5.568961         6.058646        -1.327061
S        4.704295         7.057502        -3.339056
C        4.927472         8.647100        -2.484069
H        5.801188         8.578231        -1.846028
H        5.166176         9.351094        -3.272382
C        3.715616         9.135238        -1.695812
H        2.846281         9.223561        -2.337023
H        3.467804         8.462321        -0.882400
H        3.922374        10.110380        -1.263798
 

