%Mem=61440MB 
%NProc=8 

#P HF/6-31G(d)  SCF(Conver=8,XQC,MaxConventionalCycles=64,MaxCycle=128) NoSymm Test 
   Pop=mk IOp(6/33=2) GFInput GFPrint 

 MEP step - Input generated by PyRED DVE-DMDS-OPLS 

0 1 
C       -2.763760         6.957682        -4.108186
H       -2.360666         6.288174        -4.861995
H       -3.809978         7.133297        -4.343013
H       -2.232686         7.900814        -4.177295
C       -2.621463         6.372484        -2.710271
H       -3.038549         7.057501        -1.981708
H       -3.159770         5.436197        -2.624489
O       -1.274115         6.197741        -2.353120
C       -0.671127         4.990075        -2.713727
H        0.345437         5.212134        -3.022786
H       -1.179273         4.528546        -3.555786
C       -0.619666         4.013444        -1.557912
H        0.016032         3.172877        -1.816464
H       -0.189678         4.508468        -0.691579
O       -1.922974         3.580104        -1.272710
C       -2.143942         2.982155        -0.031986
H       -3.202332         3.094008         0.174768
H       -1.591106         3.496492         0.749931
C       -1.807803         1.504311         0.002618
H       -2.254915         1.011531        -0.858078
H       -2.235797         1.063399         0.903293
O       -0.420251         1.331418        -0.000000
C        0.000000         0.000000        -0.000000
H       -0.373506        -0.520718        -0.878320
H       -0.387343        -0.514769         0.877148
C        1.520146        -0.000000        -0.000000
H        1.893028         0.562276         0.846903
H        1.877619         0.490299        -0.896472
S        2.257082        -1.658530        -0.005973
C        2.100118        -2.131908         1.745859
H        2.565229        -1.372116         2.361029
H        1.055811        -2.201935         2.020291
C        2.787117        -3.477233         1.964890
H        3.839756        -3.399540         1.722129
H        2.341947        -4.225984         1.322598
S        2.610713        -3.964241         3.709994
C        3.635938        -5.465775         3.772636
H        3.804194        -5.650620         4.825710
H        4.600766        -5.255982         3.330277
C        2.983044        -6.690774         3.133776
H        2.029612        -6.878849         3.608595
H        2.789011        -6.533529         2.080252
S        3.972437        -8.212566         3.317182
C        4.775336        -8.379730         1.692218
H        5.218208        -9.368367         1.718530
H        4.008492        -8.398627         0.926520
C        5.841720        -7.339658         1.364892
H        6.312554        -7.579086         0.415645
H        5.417985        -6.345250         1.275884
H        6.609062        -7.313815         2.129873
 

