%Mem=61440MB 
%NProc=8 

#P HF/6-31G(d)  SCF(Conver=8,XQC,MaxConventionalCycles=64,MaxCycle=128) NoSymm Test 
   Pop=mk IOp(6/33=2) GFInput GFPrint 

 MEP step - Input generated by PyRED DVE-DMDS-OPLS 

0 1 
C       -3.949434         6.735352        -3.038982
H       -3.781315         6.677534        -1.968972
H       -3.092856         7.222398        -3.492095
H       -4.824186         7.357700        -3.202928
C       -4.163065         5.361311        -3.659836
H       -5.012649         4.862371        -3.196112
H       -4.383729         5.467483        -4.714405
O       -3.029970         4.540537        -3.589979
C       -2.771067         3.941529        -2.357243
H       -3.643809         3.387115        -2.014869
H       -2.525481         4.674340        -1.593627
C       -1.583175         3.013265        -2.555520
H       -1.812660         2.278917        -3.321990
H       -0.736367         3.594210        -2.895355
O       -1.206572         2.392830        -1.357648
C       -1.858190         1.194343        -1.048563
H       -1.765915         0.488140        -1.869971
H       -2.918758         1.365375        -0.869548
C       -1.249571         0.591053         0.202463
H       -1.901513        -0.201803         0.550601
H       -1.195617         1.350183         0.979280
O        0.000000         0.000000         0.000000
C        1.115918         0.847721         0.000000
H        1.108604         1.460104         0.901757
H        1.102280         1.509998        -0.854345
C        2.375696        -0.000000        -0.000000
H        2.352218        -0.698694         0.827856
H        3.231627         0.649797         0.144243
S        2.726632        -0.901500        -1.538884
C        1.621153        -2.346347        -1.414064
H        1.801442        -2.831628        -0.462854
H        0.593353        -2.022609        -1.437872
C        1.913958        -3.294472        -2.573393
H        2.952147        -3.599665        -2.578216
H        1.729499        -2.794079        -3.516354
S        0.838934        -4.759258        -2.626770
C        1.369206        -5.725405        -1.180569
H        0.697834        -6.575054        -1.167496
H        1.182720        -5.157800        -0.276892
C        2.817656        -6.212174        -1.163028
H        3.500635        -5.372894        -1.146349
H        2.967084        -6.770143        -0.244356
S        3.201277        -7.308939        -2.563895
C        4.699923        -8.132840        -1.946978
H        4.483198        -8.588157        -0.986838
H        4.873669        -8.941223        -2.647541
C        5.938139        -7.245124        -1.858341
H        5.805038        -6.440224        -1.143642
H        6.794420        -7.831543        -1.536945
H        6.168227        -6.804611        -2.821507
 

