%Mem=61440MB 
%NProc=8 

#P HF/6-31G(d)  SCF(Conver=8,XQC,MaxConventionalCycles=64,MaxCycle=128) NoSymm Test 
   Pop=mk IOp(6/33=2) GFInput GFPrint 

 MEP step - Input generated by PyRED DVE-DMDS-OPLS 

0 1 
C        5.338949        -3.035474         3.779863
H        4.878802        -3.836740         4.349254
H        6.346506        -3.348476         3.523860
H        5.407273        -2.159177         4.415358
C        4.559753        -2.710166         2.512964
H        5.080951        -1.950598         1.947483
H        4.472004        -3.592439         1.882077
O        3.282085        -2.184449         2.767982
C        2.317150        -3.092982         3.203227
H        2.473277        -3.353627         4.248115
H        2.357938        -4.007191         2.616305
C        0.945172        -2.475874         3.057138
H        0.221177        -3.093315         3.588301
H        0.946177        -1.491528         3.519488
O        0.611547        -2.406650         1.703751
C       -0.635533        -1.840216         1.415686
H       -1.350744        -2.080954         2.201223
H       -0.982794        -2.292121         0.495918
C       -0.584530        -0.333805         1.226004
H       -0.052501         0.130252         2.051505
H       -1.601512         0.051249         1.235118
O        0.000000         0.000000         0.000000
C        1.131341         0.825741        -0.000000
H        1.105416         1.504689         0.847574
H        1.083980         1.427349        -0.898412
C        2.413002         0.000000         0.000000
H        2.451963        -0.591304        -0.906204
H        2.438834        -0.688124         0.832021
S        3.920987         1.014033         0.007192
C        4.041565         1.454879         1.769468
H        3.212094         2.101544         2.033054
H        3.968761         0.553358         2.363156
C        5.338125         2.200420         2.091119
H        5.242465         2.626699         3.082287
H        5.486433         3.028422         1.409120
S        6.847255         1.179580         2.152645
C        7.600980         1.403132         0.508598
H        6.854945         1.267695        -0.260217
H        8.302866         0.583313         0.422647
C        8.319711         2.741001         0.348289
H        7.616416         3.560376         0.427809
H        9.051312         2.877078         1.133096
S        9.100916         2.963337        -1.280486
C       10.580107         1.907601        -1.173202
H       10.291034         0.906145        -0.878508
H       10.934025         1.840035        -2.195113
C       11.688781         2.441948        -0.271244
H       11.369896         2.510764         0.762845
H       12.547861         1.777682        -0.306106
H       12.005846         3.427648        -0.591084
 

