%Mem=61440MB 
%NProc=8 

#P HF/6-31G(d)  SCF(Conver=8,XQC,MaxConventionalCycles=64,MaxCycle=128) NoSymm Test 
   Pop=mk IOp(6/33=2) GFInput GFPrint 

 MEP step - Input generated by PyRED DVE-DMDS-OPLS 

0 1 
C       -8.287944        -0.542844        -2.459807
H       -8.017691        -1.456164        -1.941879
H       -9.013058        -0.010761        -1.854664
H       -8.751745        -0.805737        -3.405479
C       -7.061884         0.318113        -2.690768
H       -6.339046        -0.214234        -3.305983
H       -7.331509         1.228829        -3.222701
O       -6.511284         0.642416        -1.444371
C       -5.352136         1.422632        -1.469398
H       -5.348554         2.031589        -0.574511
H       -5.342261         2.091543        -2.325623
C       -4.104731         0.554271        -1.483839
H       -4.106535        -0.088030        -0.607353
H       -4.091423        -0.087260        -2.362484
O       -3.000776         1.413106        -1.495337
C       -1.741862         0.803427        -1.464198
H       -1.062292         1.454145        -2.000528
H       -1.755214        -0.154440        -1.977211
C       -1.261341         0.609063        -0.030500
H       -1.939104        -0.042807         0.506081
H       -1.248826         1.566573         0.483055
O        0.000000         0.000000        -0.000000
C        1.099878         0.864186         0.000000
H        1.071785         1.503136         0.879627
H        1.099322         1.509747        -0.873453
C        2.350368         0.000000         0.000000
H        2.376237        -0.594322        -0.904154
H        2.321925        -0.689018         0.833802
S        3.891901         0.961658         0.021619
C        4.089822         1.349266         1.790586
H        4.761759         2.197272         1.817774
H        3.146712         1.678412         2.205478
C        4.656837         0.188373         2.605090
H        5.601103        -0.139366         2.191767
H        3.987026        -0.661155         2.571684
S        4.843002         0.564371         4.377033
C        6.351476         1.584344         4.418776
H        6.316813         2.083951         5.378282
H        6.302474         2.354620         3.660937
C        7.641047         0.777706         4.280711
H        7.689392         0.007390         5.038196
H        7.675267         0.278399         3.320864
S        9.147889         1.796725         4.323840
C        9.316886         2.205439         6.090152
H       10.060401         2.993312         6.111129
H        8.393503         2.640637         6.452576
C        9.758689         1.046397         6.978654
H       10.703149         0.637565         6.639371
H        9.881872         1.390135         8.001825
H        9.029337         0.244110         6.988399
 

