%Mem=61440MB 
%NProc=8 

#P HF/6-31G(d)  SCF(Conver=8,XQC,MaxConventionalCycles=64,MaxCycle=128) NoSymm Test 
   Pop=mk IOp(6/33=2) GFInput GFPrint 

 MEP step - Input generated by PyRED DVE-DMDS-OPLS 

0 1 
C       -6.923104         6.494734         2.459807
H       -6.181530         7.092444         1.941879
H       -7.822133         6.469253         1.854664
H       -7.155195         6.974690         3.405479
C       -6.403942         5.089407         2.690768
H       -5.506636         5.116398         3.305983
H       -7.143519         4.493481         3.222701
O       -6.135358         4.509585         1.444371
C       -5.625339         3.208722         1.469398
H       -5.968601         2.705717         0.574511
H       -5.997509         2.652818         2.325623
C       -4.105457         3.213910         1.483839
H       -3.741777         3.743335         0.607353
H       -3.729782         3.734110         2.362484
O       -3.685541         1.879750         1.495337
C       -2.303258         1.665587         1.464198
H       -2.114149         0.743910         2.000528
H       -1.769670         2.461182         1.977211
C       -1.797449         1.552295         0.030500
H       -1.984416         2.473892        -0.506081
H       -2.331523         0.757469        -0.483055
O       -0.413519         1.336245         0.000000
C        0.000000         0.000000         0.000000
H       -0.386371        -0.509671        -0.879627
H       -0.367475        -0.530765         0.873453
C        1.520047         0.000000        -0.000000
H        1.879216         0.474220         0.904154
H        1.888372         0.583002        -0.833802
S        2.241486        -1.667525        -0.021619
C        2.183943        -2.098919        -1.790586
H        2.254609        -3.178558        -1.817774
H        1.220951        -1.833514        -2.205478
C        3.310405        -1.466255        -2.605090
H        4.273548        -1.733475        -2.191767
H        3.242353        -0.386573        -2.571684
S        3.249791        -1.881415        -4.377033
C        3.910880        -3.578118        -4.418776
H        3.598325        -3.969421        -5.378282
H        3.432646        -4.183938        -3.660937
C        5.430361        -3.647679        -4.280711
H        5.908076        -3.041453        -5.038196
H        5.742381        -3.256372        -3.320864
S        6.090648        -5.342669        -4.323840
C        5.997312        -5.774984        -6.090152
H        6.161050        -6.845847        -6.111129
H        4.990255        -5.608039        -6.452576
C        7.019713        -5.072657        -6.978654
H        8.029119        -5.273274        -6.639371
H        6.925628        -5.425470        -8.001825
H        6.875822        -3.997987        -6.988399
 

