%Mem=61440MB 
%NProc=8 

#P HF/6-31G(d)  SCF(Conver=8,XQC,MaxConventionalCycles=64,MaxCycle=128) NoSymm Test 
   Pop=mk IOp(6/33=2) GFInput GFPrint 

 MEP step - Input generated by PyRED DVE-DMDS-OPLS 

0 1 
C       -2.359111         2.084796        -7.635213
H       -1.693510         1.358755        -8.090931
H       -3.332415         1.989031        -8.107466
H       -1.970808         3.075302        -7.843655
C       -2.474341         1.873255        -6.132816
H       -3.151318         2.603863        -5.707816
H       -2.884908         0.889299        -5.916889
O       -1.243351         2.050226        -5.481771
C       -0.413493         0.925518        -5.390041
H        0.609033         1.281754        -5.404448
H       -0.550827         0.272053        -6.249155
C       -0.632686         0.121363        -4.117560
H       -1.687495        -0.119702        -3.997731
H       -0.088529        -0.812795        -4.205784
O       -0.141236         0.746560        -2.967862
C       -0.946081         1.741970        -2.387316
H       -1.958976         1.371366        -2.243331
H       -0.992382         2.611728        -3.031672
C       -0.357671         2.147214        -1.050014
H       -0.819190         3.077288        -0.742596
H        0.704864         2.330767        -1.164470
O       -0.612817         1.255066         0.000000
C        0.000000        -0.000000         0.000000
H       -0.324011        -0.590922        -0.849183
H       -0.365427        -0.489283         0.893831
C        1.527580         0.000000         0.000000
H        1.906899         0.337331        -0.955733
H        1.857871        -1.025812         0.124042
S        2.369528         1.047966         1.225439
C        1.683185         0.468198         2.811384
H        1.393157        -0.570233         2.716499
H        2.501106         0.501397         3.519374
C        0.511611         1.315733         3.306275
H       -0.293119         1.308475         2.585767
H        0.816701         2.348078         3.417909
S       -0.208912         0.713710         4.867241
C        0.967460         1.327580         6.114982
H        1.979203         1.134396         5.783625
H        0.803578         0.719948         6.995114
C        0.767075         2.801041         6.464149
H        0.853525         3.430211         5.588457
H       -0.229672         2.947769         6.858834
S        1.896844         3.402007         7.758721
C        3.449814         3.671800         6.846963
H        4.204999         3.761500         7.618686
H        3.693213         2.783476         6.276447
C        3.463279         4.911174         5.956881
H        2.720575         4.850938         5.169038
H        3.264298         5.804840         6.536581
H        4.435442         5.018472         5.483964
 

