%Mem=61440MB 
%NProc=8 

#P HF/6-31G(d)  SCF(Conver=8,XQC,MaxConventionalCycles=64,MaxCycle=128) NoSymm Test 
   Pop=mk IOp(6/33=2) GFInput GFPrint 

 MEP step - Input generated by PyRED DVE-DMDS-OPLS 

0 1 
C       -7.010558         0.271172         2.197340
H       -7.749655         0.222981         1.404470
H       -6.631121        -0.730222         2.370395
H       -7.515122         0.606652         3.098441
C       -5.867587         1.217980         1.855799
H       -6.249090         2.218002         1.658032
H       -5.187367         1.288165         2.694994
O       -5.090014         0.783184         0.774618
C       -5.657255         0.915498        -0.493622
H       -6.123222         1.891635        -0.606614
H       -6.417979         0.155713        -0.663161
C       -4.566005         0.761353        -1.529443
H       -4.016271        -0.152747        -1.327964
H       -5.016816         0.670281        -2.514771
O       -3.722458         1.877585        -1.513720
C       -2.344464         1.645476        -1.468276
H       -1.861871         2.510052        -1.905566
H       -2.075092         0.781931        -2.071990
C       -1.858771         1.478828        -0.033184
H       -2.358401         0.648829         0.453958
H       -2.099884         2.374552         0.523998
O       -0.463912         1.319459        -0.000000
C        0.000000         0.000000         0.000000
H       -0.346025        -0.525395        -0.889759
H       -0.376974        -0.532287         0.868923
C        1.518174         0.000000         0.000000
H        1.890587         0.586401        -0.830003
H        1.865276        -1.016613        -0.148365
S        2.326104         0.513365         1.542760
C        2.012758         2.302237         1.664756
H        0.962558         2.465988         1.854218
H        2.566163         2.600289         2.547210
C        2.424338         3.167510         0.476860
H        2.205122         4.196535         0.739378
H        1.827541         2.920726        -0.390711
S        4.194386         3.025583         0.071741
C        4.358652         4.425165        -1.075937
H        3.487869         4.440245        -1.723809
H        5.209792         4.195615        -1.703987
C        4.531346         5.801116        -0.426983
H        4.368419         6.572899        -1.170746
H        3.788192         5.953014         0.345075
S        6.136789         6.086920         0.376490
C        7.202049         6.504165        -1.039358
H        8.211981         6.384927        -0.665565
H        7.071162         5.762184        -1.818537
C        7.014539         7.913748        -1.593324
H        6.012175         8.066520        -1.978352
H        7.193880         8.656950        -0.825293
H        7.710665         8.089435        -2.408959
 

