%Mem=61440MB 
%NProc=8 

#P HF/6-31G(d)  SCF(Conver=8,XQC,MaxConventionalCycles=64,MaxCycle=128) NoSymm Test 
   Pop=mk IOp(6/33=2) GFInput GFPrint 

 MEP step - Input generated by PyRED DVE-DMDS-OPLS 

0 1 
C       -9.329098        -1.074625         0.000041
H      -10.310511        -0.610669         0.000046
H       -9.244694        -1.703928        -0.878726
H       -9.244682        -1.703925         0.878809
C       -8.242166        -0.017946         0.000031
H       -8.331724         0.621359        -0.877364
H       -8.331711         0.621362         0.877425
O       -6.999142        -0.657560         0.000024
C       -5.901326         0.201035         0.000018
H       -5.906851         0.842490         0.878938
H       -5.906859         0.842489        -0.878903
C       -4.650703        -0.652912         0.000013
H       -4.643140        -1.293228         0.879039
H       -4.643147        -1.293228        -0.879014
O       -3.549758         0.205511         0.000008
C       -2.310113        -0.433666         0.000003
H       -2.197457        -1.064186        -0.879028
H       -2.197452        -1.064191         0.879031
C       -1.241640         0.639409         0.000004
H       -1.353808         1.269674         0.879196
H       -1.353811         1.269679        -0.879185
O       -0.000000         0.000000         0.000000
C        1.097591         0.861451        -0.000000
H        1.077602         1.502131         0.879040
H        1.077603         1.502132        -0.879038
C        2.350044        -0.000000         0.000000
H        2.348540        -0.632830        -0.878391
H        2.348541        -0.632829         0.878392
S        3.834176         1.048207        -0.000001
C        5.118157        -0.239626         0.000006
H        4.998944        -0.861850         0.878111
H        4.998947        -0.861858        -0.878095
C        6.497191         0.413369         0.000006
H        6.615784         1.035715         0.878194
H        6.615788         1.035707        -0.878191
S        7.780900        -0.875091         0.000014
C        9.269890         0.169798         0.000011
H        9.261212         0.803285         0.878171
H        9.261218         0.803272        -0.878158
C       10.514737        -0.712771         0.000022
H       10.521659        -1.347040         0.877973
H       10.521665        -1.347053        -0.877918
S       12.003668         0.330485         0.000020
C       13.292296        -0.952189         0.000042
H       13.167020        -1.576715         0.876798
H       13.167034        -1.576734        -0.876703
C       14.677576        -0.312126         0.000046
H       15.441074        -1.083163         0.000060
H       14.823304         0.306417        -0.878531
H       14.823290         0.306435         0.878612
 

