%chk=03-IsoP_004_gaussian.chk
%nproc=1
%mem=1000Mb
#p opt pm3

Conformer number 004. Energy MM = 23.287 kcal/mol

0 1
C  -0.6905    -0.5847    -0.2133
H  -0.0025    -0.9809    -0.9723
H  -0.9235    -1.4419    0.4297
C  -1.9412    -0.0769    -0.9006
C  -1.7101    0.5883    -2.2335
H  -2.6434    0.9285    -2.6946
H  -1.2334    -0.1104    -2.9287
H  -1.0613    1.4622    -2.1184
C  -3.1890    -0.2098    -0.4089
H  -4.0239    0.1716    -0.9964
C  -3.5942    -0.8170    0.8968
H  -4.1634    -1.7344    0.7193
H  -2.7496    -1.0543    1.5474
H  -4.2372    -0.1170    1.4402
C  2.9879    0.9246    -0.2603
H  3.5204    1.8307    0.0463
H  3.6723    0.3061    -0.8511
H  2.1749    1.2204    -0.9271
C  2.5210    0.1647    0.9506
C  3.6331    -0.4141    1.7859
H  3.2580    -0.9539    2.6618
H  4.2278    -1.1162    1.1923
H  4.2914    0.3839    2.1446
C  1.2326    -0.0224    1.2977
H  1.0152    -0.6088    2.1906
C  0.0068    0.5082    0.6031
H  -0.6766    0.8906    1.3724
H  0.2465    1.3685    -0.0296

