%chk=03-IsoP_007_gaussian.chk
%nproc=1
%mem=1000Mb
#p opt pm3

Conformer number 007. Energy MM = 24.539 kcal/mol

0 1
C  -0.5726    0.6234    -0.3492
H  -0.6120    1.7196    -0.2844
H  0.0727    0.3832    -1.2054
C  -1.9795    0.1307    -0.6757
C  -2.5208    0.7422    -1.9454
H  -3.4823    0.3322    -2.2589
H  -2.6457    1.8225    -1.8173
H  -1.8215    0.5723    -2.7715
C  -2.6585    -0.7546    0.0822
H  -2.1897    -1.1585    0.9772
C  -4.0414    -1.2891    -0.1267
H  -4.5908    -0.7999    -0.9322
H  -3.9941    -2.3605    -0.3444
H  -4.6242    -1.1554    0.7907
C  2.8841    -1.2345    0.3557
H  3.3454    -1.8756    1.1138
H  1.9659    -1.7197    0.0172
H  3.5542    -1.1873    -0.5095
C  2.6614    0.1450    0.9116
C  3.9281    0.9040    1.2105
H  4.5319    0.3585    1.9431
H  3.7296    1.9002    1.6197
H  4.5188    1.0314    0.2974
C  1.4565    0.7067    1.1312
H  1.4219    1.7241    1.5215
C  0.0989    0.0870    0.9233
H  0.1624    -1.0051    0.8904
H  -0.5132    0.3311    1.8009

