%Mem=61440MB 
%NProc=8 

#P HF/6-31G(d)  Opt=(Tight,MaxCycle=55) GFInput GFPrint SCF(Conver=8,XQC,MaxConventionalCycles=64,MaxCycle=128) Test 

 Optimization step - Input generated by PyRED DVE-DMDS-OPLS 

0 1 
C        6.629000         1.459000         1.438000
H        7.127000         0.487000         1.512000
H        7.263000         2.196000         1.942000
H        5.677000         1.398000         1.972000
C        6.398000         1.865000        -0.011000
H        5.950000         2.862000        -0.052000
H        7.356000         1.914000        -0.550000
O        5.496000         1.023000        -0.702000
C        6.000000        -0.242000        -1.080000
H        7.089000        -0.290000        -0.946000
H        5.784000        -0.384000        -2.145000
C        5.346000        -1.367000        -0.302000
H        5.838000        -2.323000        -0.549000
H        5.464000        -1.197000         0.778000
O        3.985000        -1.399000        -0.649000
C        3.184000        -2.205000         0.182000
H        3.398000        -1.997000         1.241000
H        3.381000        -3.275000        -0.000000
C        1.729000        -1.893000        -0.100000
H        1.098000        -2.622000         0.418000
H        1.536000        -1.979000        -1.179000
O        1.335000        -0.623000         0.372000
C        1.686000         0.478000        -0.448000
H        1.537000         0.220000        -1.504000
H        2.744000         0.736000        -0.317000
C        0.820000         1.668000        -0.077000
H        1.209000         2.552000        -0.591000
H        0.885000         1.864000         0.998000
S       -0.941000         1.536000        -0.549000
C       -1.747000         1.093000         1.022000
H       -1.410000         1.796000         1.792000
H       -2.808000         1.304000         0.858000
C       -1.553000        -0.329000         1.541000
H       -2.019000        -0.409000         2.530000
H       -0.487000        -0.536000         1.647000
S       -2.169000        -1.686000         0.498000
C       -3.974000        -1.398000         0.526000
H       -4.217000        -0.815000         1.420000
H       -4.458000        -2.370000         0.643000
C       -4.490000        -0.720000        -0.740000
H       -3.978000         0.228000        -0.923000
H       -4.284000        -1.352000        -1.608000
S       -6.296000        -0.465000        -0.742000
C       -6.463000         0.978000         0.363000
H       -7.530000         1.022000         0.596000
H       -5.948000         0.773000         1.307000
C       -5.997000         2.297000        -0.241000
H       -6.548000         2.519000        -1.158000
H       -6.157000         3.118000         0.466000
H       -4.932000         2.278000        -0.489000
 

