%Mem=61440MB 
%NProc=8 

#P HF/6-31G(d)  Opt=(Tight,MaxCycle=55) GFInput GFPrint SCF(Conver=8,XQC,MaxConventionalCycles=64,MaxCycle=128) Test 

 Optimization step - Input generated by PyRED DVE-DMDS-OPLS 

0 1 
C       -8.129479         1.399786        -1.498104
H       -7.957256         2.440096        -1.244772
H       -7.428477         1.120946        -2.276975
H       -9.136400         1.316925        -1.896493
C       -7.966616         0.484728        -0.292326
H       -8.669813         0.756913         0.492879
H       -8.179466        -0.537986        -0.577590
O       -6.659359         0.479082         0.215548
C       -6.333604         1.526405         1.080342
H       -6.942804         1.468642         1.983039
H       -6.508695         2.492955         0.617196
C       -4.870253         1.424948         1.459014
H       -4.669098         2.130653         2.257515
H       -4.663383         0.426232         1.834601
O       -4.020926         1.756826         0.399443
C       -3.568516         0.710798        -0.419506
H       -3.498187         1.092702        -1.429962
H       -4.270253        -0.112979        -0.426867
C       -2.188380         0.255497         0.035086
H       -2.220422        -0.082540         1.068461
H       -1.504072         1.092930        -0.011751
O       -1.691988        -0.746330        -0.811845
C       -1.958434        -2.071878        -0.442761
H       -2.056962        -2.643231        -1.355904
H       -2.904347        -2.131991         0.091982
C       -0.861994        -2.674621         0.429786
H       -1.211380        -3.624509         0.820501
H       -0.666301        -2.039395         1.286111
S        0.694042        -3.094477        -0.412139
C        1.461078        -1.478401        -0.741089
H        2.218227        -1.679803        -1.488617
H        0.722379        -0.832267        -1.192045
C        2.081266        -0.782136         0.471831
H        1.378607        -0.751583         1.294386
H        2.300335         0.248512         0.215950
S        3.588493        -1.553502         1.138359
C        4.866138        -0.898152         0.021625
H        4.506792        -0.933685        -0.999574
H        5.696598        -1.589010         0.089211
C        5.330621         0.509888         0.386401
H        4.496150         1.198181         0.377965
H        5.755030         0.507775         1.382387
S        6.594980         1.057892        -0.805155
C        7.158631         2.612898        -0.048921
H        7.449296         2.414675         0.976476
H        8.061857         2.869042        -0.589843
C        6.162159         3.766344        -0.118374
H        5.886038         3.978537        -1.144740
H        5.256295         3.548636         0.436496
H        6.601967         4.662767         0.309737
 

