%Mem=61440MB 
%NProc=8 

#P HF/6-31G(d)  Opt=(Tight,MaxCycle=55) GFInput GFPrint SCF(Conver=8,XQC,MaxConventionalCycles=64,MaxCycle=128) Test 

 Optimization step - Input generated by PyRED DVE-DMDS-OPLS 

0 1 
C        9.690000         0.220000        -0.613000
H        9.959000         0.816000         0.263000
H       10.257000        -0.715000        -0.587000
H        9.977000         0.779000        -1.508000
C        8.202000        -0.060000        -0.625000
H        7.928000        -0.668000        -1.501000
H        7.915000        -0.632000         0.270000
O        7.524000         1.180000        -0.673000
C        6.122000         1.082000        -0.745000
H        5.813000         0.244000        -1.387000
H        5.757000         2.006000        -1.203000
C        5.489000         0.931000         0.631000
H        5.844000         0.015000         1.130000
H        5.779000         1.784000         1.262000
O        4.093000         0.887000         0.454000
C        3.380000         0.776000         1.665000
H        3.592000         1.642000         2.312000
H        3.681000        -0.133000         2.208000
C        1.893000         0.720000         1.377000
H        1.617000         1.555000         0.718000
H        1.351000         0.837000         2.321000
O        1.463000        -0.507000         0.832000
C        1.671000        -0.662000        -0.558000
H        2.735000        -0.827000        -0.772000
H        1.361000         0.248000        -1.090000
C        0.862000        -1.849000        -1.045000
H        1.125000        -2.744000        -0.471000
H        1.114000        -2.046000        -2.091000
S       -0.945000        -1.630000        -1.006000
C       -1.308000        -2.015000         0.743000
H       -0.990000        -3.047000         0.932000
H       -0.720000        -1.351000         1.377000
C       -2.796000        -1.894000         1.057000
H       -2.983000        -2.389000         2.014000
H       -3.401000        -2.424000         0.314000
S       -3.442000        -0.202000         1.285000
C       -3.944000         0.266000        -0.404000
H       -3.127000         0.036000        -1.092000
H       -4.038000         1.355000        -0.377000
C       -5.242000        -0.370000        -0.898000
H       -5.342000        -0.204000        -1.977000
H       -5.219000        -1.453000        -0.750000
S       -6.764000         0.211000        -0.087000
C       -6.987000         1.810000        -0.934000
H       -6.117000         2.449000        -0.751000
H       -7.055000         1.636000        -2.013000
C       -8.250000         2.492000        -0.424000
H       -8.189000         2.682000         0.651000
H       -8.394000         3.452000        -0.931000
H       -9.134000         1.875000        -0.610000
 

