%Mem=61440MB 
%NProc=8 

#P HF/6-31G(d)  SCF(Conver=8,XQC,MaxConventionalCycles=64,MaxCycle=128) NoSymm Test 
   Pop=mk IOp(6/33=2) GFInput GFPrint 

 MEP step - Input generated by PyRED DVE-DMDS-OPLS 

0 1 
C       -2.359181         2.084772        -7.635190
H       -1.693574         1.358741        -8.090916
H       -3.332489         1.988992        -8.107430
H       -1.970896         3.075283        -7.843636
C       -2.474388         1.873228        -6.132792
H       -3.151370         2.603826        -5.707782
H       -2.884938         0.889265        -5.916860
O       -1.243390         2.050214        -5.481764
C       -0.413520         0.925517        -5.390040
H        0.609001         1.281764        -5.404456
H       -0.550852         0.272050        -6.249153
C       -0.632692         0.121360        -4.117557
H       -1.687498        -0.119716        -3.997717
H       -0.088527        -0.812792        -4.205785
O       -0.141238         0.746561        -2.967863
C       -0.946082         1.741970        -2.387316
H       -1.958976         1.371366        -2.243328
H       -0.992384         2.611729        -3.031670
C       -0.357670         2.147214        -1.050013
H       -0.819188         3.077288        -0.742594
H        0.704865         2.330766        -1.164470
O       -0.612816         1.255065        -0.000000
C        0.000000        -0.000000         0.000000
H       -0.324011        -0.590923        -0.849183
H       -0.365427        -0.489283         0.893830
C        1.527580         0.000000         0.000000
H        1.906900         0.337331        -0.955734
H        1.857871        -1.025813         0.124040
S        2.369529         1.047964         1.225440
C        1.683187         0.468192         2.811384
H        1.393159        -0.570238         2.716498
H        2.501107         0.501391         3.519375
C        0.511611         1.315726         3.306278
H       -0.293117         1.308472         2.585768
H        0.816701         2.348071         3.417916
S       -0.208914         0.713697         4.867239
C        0.967453         1.327568         6.114985
H        1.979198         1.134386         5.783628
H        0.803571         0.719933         6.995115
C        0.767064         2.801027         6.464154
H        0.853517         3.430199         5.588464
H       -0.229684         2.947753         6.858837
S        1.896828         3.401992         7.758732
C        3.449801         3.671789         6.846980
H        4.204983         3.761490         7.618706
H        3.693205         2.783465         6.276465
C        3.463268         4.911163         5.956898
H        2.720568         4.850925         5.169052
H        3.264281         5.804828         6.536598
H        4.435433         5.018463         5.483987
 

