%Mem=61440MB 
%NProc=8 

#P HF/6-31G(d)  SCF(Conver=8,XQC,MaxConventionalCycles=64,MaxCycle=128) NoSymm Test 
   Pop=mk IOp(6/33=2) GFInput GFPrint 

 MEP step - Input generated by PyRED DVE-DMDS-OPLS 

0 1 
C       -4.392774        -0.266607        -7.451657
H       -3.678256         0.448118        -7.843981
H       -4.347378        -1.167661        -8.055315
H       -5.385222         0.160344        -7.540814
C       -4.083757        -0.583257        -6.001919
H       -4.793219        -1.310968        -5.611821
H       -3.090949        -1.019687        -5.915847
O       -4.171102         0.605237        -5.264176
C       -3.888678         0.502943        -3.899202
H       -4.173988        -0.469997        -3.507072
H       -4.490839         1.248580        -3.394164
C       -2.408988         0.750054        -3.626099
H       -1.807000         0.004533        -4.130202
H       -2.123752         1.722864        -4.016575
O       -2.118973         0.649837        -2.258686
C       -2.234843         1.828577        -1.513852
H       -3.264791         2.182065        -1.498240
H       -1.617421         2.610376        -1.949028
C       -1.782877         1.572424        -0.090740
H       -2.346026         0.743586         0.329548
H       -1.996692         2.456139         0.500788
O       -0.407197         1.341449         0.000000
C        0.000000         0.000000         0.000000
H       -0.389887        -0.515953        -0.867188
H       -0.369617        -0.506172         0.888618
C        1.519919         0.000000         0.000000
H        1.882454         0.487386         0.895955
H        1.888895         0.568130        -0.843741
S        2.244642        -1.666597         0.008297
C        2.084506        -2.178742        -1.732323
H        2.181761        -3.256682        -1.715232
H        1.090064        -1.956341        -2.094256
C        3.136946        -1.559344        -2.649692
H        4.132624        -1.776191        -2.285421
H        3.035521        -0.481969        -2.667291
S        2.982957        -2.075867        -4.389555
C        3.737959        -3.730770        -4.369846
H        3.368890        -4.222752        -5.260147
H        3.351539        -4.282463        -3.520037
C        5.267110        -3.784015        -4.350424
H        5.674703        -3.201104        -3.533459
H        5.560979        -4.812943        -4.174474
S        6.096478        -3.300426        -5.895663
C        6.516152        -1.550032        -5.612765
H        5.608168        -0.978870        -5.487527
H        7.096872        -1.476315        -4.700566
C        7.323456        -1.020798        -6.794672
H        8.243988        -1.578952        -6.925234
H        6.755116        -1.083047        -7.716202
H        7.579807         0.020629        -6.628586
 

