%Mem=61440MB 
%NProc=8 

#P HF/6-31G(d)  SCF(Conver=8,XQC,MaxConventionalCycles=64,MaxCycle=128) NoSymm Test 
   Pop=mk IOp(6/33=2) GFInput GFPrint 

 MEP step - Input generated by PyRED DVE-DMDS-OPLS 

0 1 
C       -3.352613         7.492416        -3.036207
H       -4.397487         7.603996        -2.766734
H       -2.761524         8.113733        -2.372070
H       -3.232289         7.863115        -4.049795
C       -2.890947         6.043374        -2.952769
H       -3.496885         5.413678        -3.601984
H       -1.865068         5.967580        -3.290101
O       -2.899790         5.532902        -1.647947
C       -4.148707         5.189093        -1.125819
H       -4.691488         4.553605        -1.822746
H       -4.751012         6.077116        -0.940770
C       -3.965467         4.448653         0.183974
H       -3.324330         5.029586         0.842031
H       -4.935551         4.351674         0.659071
O       -3.471969         3.151820         0.025519
C       -2.080029         2.996568         0.005628
H       -1.630806         3.455667         0.883139
H       -1.641738         3.451056        -0.872589
C       -1.804674         1.507351         0.016215
H       -2.263533         1.041835        -0.853405
H       -2.241812         1.056754         0.904320
O       -0.418261         1.330350         0.000000
C        0.000000         0.000000         0.000000
H       -0.387167        -0.517653        -0.875682
H       -0.372452        -0.521195         0.878768
C        1.520261        -0.000000         0.000000
H        1.878868         0.478396         0.902108
H        1.889810         0.578077        -0.836760
S        2.242558        -1.667809        -0.014870
C        2.192401        -2.104111        -1.782957
H        2.238067        -3.184201        -1.815843
H        1.237748        -1.818115        -2.204047
C        3.338149        -1.493105        -2.588114
H        4.293934        -1.797358        -2.181280
H        3.300278        -0.413530        -2.532125
S        3.286062        -1.917234        -4.363501
C        4.549085        -3.220537        -4.513142
H        5.471335        -2.862099        -4.074130
H        4.719220        -3.319386        -5.577328
C        4.145597        -4.573062        -3.931466
H        3.972799        -4.507094        -2.864334
H        3.222382        -4.906313        -4.387451
S        5.354959        -5.895051        -4.241974
C        6.646437        -5.513745        -3.017207
H        7.081753        -4.545610        -3.231209
H        6.192362        -5.468661        -2.033995
C        7.728977        -6.589257        -3.049608
H        7.318198        -7.564826        -2.815364
H        8.197576        -6.644032        -4.026011
H        8.498526        -6.361475        -2.319321
 

