%Mem=61440MB 
%NProc=8 

#P HF/6-31G(d)  SCF(Conver=8,XQC,MaxConventionalCycles=64,MaxCycle=128) NoSymm Test 
   Pop=mk IOp(6/33=2) GFInput GFPrint 

 MEP step - Input generated by PyRED DVE-DMDS-OPLS 

0 1 
C       -2.352412         3.596780         7.451657
H       -2.174309         2.601969         7.843981
H       -1.800375         4.310372         8.055315
H       -3.410871         3.813358         7.540814
C       -1.917886         3.680121         6.001919
H       -2.084421         4.682701         5.611821
H       -0.853718         3.471117         5.915847
O       -2.668569         2.754583         5.264176
C       -2.378333         2.677188         3.899202
H       -2.056648         3.638715         3.507072
H       -3.298536         2.409236         3.394164
C       -1.305074         1.629018         3.626099
H       -0.385078         1.896973         4.130202
H       -1.626744         0.667639         4.016575
O       -1.009793         1.545581         2.258686
C       -1.778315         0.644344         1.513852
H       -2.825581         0.942641         1.498240
H       -1.718222        -0.350044         1.949028
C       -1.261028         0.596367         0.090740
H       -1.249703         1.598355        -0.329548
H       -1.941386        -0.006777        -0.500788
O        0.000000         0.000000         0.000000
C        1.100581         0.868341         0.000000
H        1.075355         1.514547         0.867188
H        1.086403         1.494939        -0.888618
C        2.348034        -0.000000        -0.000000
H        2.367132        -0.607135        -0.895955
H        2.326289        -0.677084         0.843741
S        3.894979         0.953796        -0.008297
C        4.056143         1.465619         1.732323
H        4.751798         2.294761         1.715232
H        3.112909         1.851219         2.094256
C        4.566052         0.355990         2.649692
H        5.507126        -0.034873         2.285421
H        3.867295        -0.470306         2.667291
S        4.734760         0.867894         4.389555
C        6.299876         1.794795         4.369846
H        6.278041         2.409434         5.260147
H        6.297913         2.468354         3.520037
C        7.585325         0.964879         4.350424
H        7.586830         0.253603         3.533459
H        8.414348         1.641469         4.174474
S        7.989739         0.094157         5.895663
C        7.334168        -1.582218         5.612765
H        6.262644        -1.532253         5.487527
H        7.768670        -1.974490         4.700566
C        7.694396        -2.477798         6.794672
H        8.768788        -2.545608         6.925234
H        7.263502        -2.102012         7.716202
H        7.309817        -3.478990         6.628586
 

