%Mem=61440MB 
%NProc=8 

#P HF/6-31G(d)  SCF(Conver=8,XQC,MaxConventionalCycles=64,MaxCycle=128) NoSymm Test 
   Pop=mk IOp(6/33=2) GFInput GFPrint 

 MEP step - Input generated by PyRED DVE-DMDS-OPLS 

0 1 
C       -6.315749        -3.242963        -0.479577
H       -6.015189        -2.797376         0.461800
H       -7.400301        -3.274112        -0.517776
H       -5.938464        -4.258687        -0.510716
C       -5.765305        -2.440284        -1.642042
H       -6.073656        -2.882097        -2.589179
H       -6.159528        -1.426437        -1.614380
O       -4.369978        -2.437667        -1.549803
C       -3.683784        -1.793362        -2.578345
H       -4.142769        -2.010723        -3.542371
H       -2.681461        -2.201595        -2.584762
C       -3.590572        -0.288673        -2.404821
H       -3.124848         0.138912        -3.292919
H       -4.580200         0.155124        -2.310931
O       -2.826602        -0.007349        -1.272653
C       -2.698137         1.349526        -0.977482
H       -3.677902         1.782189        -0.771920
H       -2.265289         1.888149        -1.818829
C       -1.817664         1.530327         0.243714
H       -2.167795         0.875711         1.037807
H       -1.911888         2.555252         0.584159
O       -0.456304         1.328079         0.000000
C       -0.000000         0.000000         0.000000
H       -0.383389        -0.541431        -0.853440
H       -0.349045        -0.502472         0.901310
C        1.518148         0.000000         0.000000
H        1.863143        -1.016274         0.155939
H        1.893225         0.592711         0.824379
S        2.330273         0.496607        -1.547645
C        2.021246         2.284674        -1.684519
H        2.555610         2.572243        -2.581970
H        0.967398         2.450632        -1.850518
C        2.463754         3.158563        -0.513954
H        1.885562         2.915836         0.365983
H        2.248757         4.189919        -0.773193
S        4.247759         3.023220        -0.168855
C        4.513965         4.521327         0.823545
H        4.085394         5.373578         0.309272
H        5.586946         4.665065         0.844761
C        3.977188         4.423667         2.249653
H        2.910401         4.244993         2.240520
H        4.454905         3.599859         2.764795
S        4.332169         5.974561         3.137493
C        3.826215         5.548454         4.831514
H        4.335425         4.638229         5.127193
H        4.224157         6.347250         5.446032
C        2.320746         5.423489         5.046659
H        1.897116         4.614782         4.461505
H        2.111139         5.217113         6.092533
H        1.812778         6.340534         4.771400
 

