%Mem=61440MB 
%NProc=8 

#P HF/6-31G(d)  SCF(Conver=8,XQC,MaxConventionalCycles=64,MaxCycle=128) NoSymm Test 
   Pop=mk IOp(6/33=2) GFInput GFPrint 

 MEP step - Input generated by PyRED DVE-DMDS-OPLS 

0 1 
C       -6.923080         6.494748         2.459821
H       -6.181506         7.092452         1.941888
H       -7.822112         6.469271         1.854682
H       -7.155166         6.974709         3.405492
C       -6.403927         5.089420         2.690786
H       -5.506616         5.116409         3.305998
H       -7.143504         4.493501         3.222726
O       -6.135349         4.509590         1.444392
C       -5.625332         3.208727         1.469423
H       -5.968603         2.705715         0.574543
H       -5.997493         2.652829         2.325657
C       -4.105449         3.213915         1.483849
H       -3.741778         3.743334         0.607355
H       -3.729766         3.734121         2.362486
O       -3.685534         1.879755         1.495351
C       -2.303250         1.665591         1.464206
H       -2.114139         0.743915         2.000537
H       -1.769660         2.461187         1.977214
C       -1.797448         1.552295         0.030506
H       -1.984418         2.473890        -0.506078
H       -2.331524         0.757468        -0.483045
O       -0.413519         1.336245         0.000000
C        0.000000         0.000000         0.000000
H       -0.386370        -0.509671        -0.879628
H       -0.367475        -0.530765         0.873454
C        1.520047         0.000000         0.000000
H        1.879217         0.474219         0.904155
H        1.888372         0.583004        -0.833800
S        2.241487        -1.667524        -0.021622
C        2.183949        -2.098911        -1.790593
H        2.254616        -3.178550        -1.817784
H        1.220959        -1.833505        -2.205486
C        3.310414        -1.466244        -2.605090
H        4.273556        -1.733465        -2.191762
H        3.242362        -0.386562        -2.571679
S        3.249808        -1.881397        -4.377034
C        3.910897        -3.578100        -4.418781
H        3.598351        -3.969397        -5.378293
H        3.432656        -4.183925        -3.660950
C        5.430377        -3.647663        -4.280704
H        5.908099        -3.041429        -5.038179
H        5.742389        -3.256364        -3.320850
S        6.090665        -5.342652        -4.323843
C        5.997357        -5.774944        -6.090161
H        6.161091        -6.845807        -6.111150
H        4.990307        -5.607990        -6.452600
C        7.019777        -5.072610        -6.978637
H        8.029176        -5.273236        -6.639339
H        6.925708        -5.425411        -8.001814
H        6.875890        -3.997940        -6.988372
 

