%Mem=61440MB 
%NProc=8 

#P HF/6-31G(d)  SCF(Conver=8,XQC,MaxConventionalCycles=64,MaxCycle=128) NoSymm Test 
   Pop=mk IOp(6/33=2) GFInput GFPrint 

 MEP step - Input generated by PyRED DVE-DMDS-OPLS 

0 1 
C       -6.192575        -0.505861         0.676036
H       -6.126054        -1.369692         1.327700
H       -5.402925         0.186102         0.946311
H       -7.149002        -0.020146         0.842441
C       -6.056020        -0.925456        -0.774231
H       -6.857098        -1.610864        -1.049345
H       -6.130391        -0.059784        -1.430921
O       -4.816152        -1.549379        -0.944338
C       -4.563575        -1.999105        -2.240581
H       -4.630081        -1.178162        -2.952018
H       -5.300457        -2.750799        -2.526700
C       -3.180158        -2.614501        -2.314863
H       -3.065776        -3.343379        -1.516334
H       -3.088871        -3.134516        -3.261873
O       -2.145874        -1.676787        -2.283747
C       -1.707043        -1.249984        -1.023705
H       -1.479319        -2.102076        -0.387832
H       -2.454887        -0.649645        -0.523524
C       -0.450691        -0.435045        -1.250669
H       -0.674569         0.413172        -1.893469
H        0.291548        -1.047748        -1.755102
O        0.000000         0.000000         0.000000
C        1.130562         0.820888         0.000000
H        1.087086         1.415470         0.902635
H        1.104575         1.502391        -0.846557
C        2.418409         0.000000         0.000000
H        2.482551        -0.639696        -0.871656
H        2.426229        -0.642253         0.871606
S        3.926119         1.007199         0.106667
C        4.109811         1.569604        -1.615920
H        4.136253         0.707003        -2.269834
H        3.267056         2.186735        -1.898206
C        5.404972         2.366508        -1.747102
H        6.251858         1.742896        -1.488474
H        5.385025         3.213093        -1.073290
S        5.588003         2.938468        -3.465689
C        7.238129         3.703540        -3.418561
H        7.543841         3.794681        -4.452481
H        7.926015         3.016408        -2.941930
C        7.266269         5.077065        -2.751268
H        6.604250         5.750890        -3.279178
H        6.916508         5.027806        -1.728831
S        8.902821         5.871501        -2.795579
C        9.805429         5.019797        -1.462937
H        9.723687         3.947993        -1.597710
H       10.844013         5.275917        -1.635040
C        9.395392         5.424574        -0.050014
H        8.360606         5.175379         0.157698
H       10.010726         4.904189         0.678529
H        9.518957         6.490949         0.097483
 

