%Mem=61440MB 
%NProc=8 

#P HF/6-31G(d)  SCF(Conver=8,XQC,MaxConventionalCycles=64,MaxCycle=128) NoSymm Test 
   Pop=mk IOp(6/33=2) GFInput GFPrint 

 MEP step - Input generated by PyRED DVE-DMDS-OPLS 

0 1 
C       -7.550545        -0.966933        -1.924837
H       -6.904351        -1.381607        -1.159675
H       -8.429363        -0.555870        -1.441350
H       -7.861757        -1.768509        -2.587687
C       -6.822189         0.112804        -2.700958
H       -5.950257        -0.309015        -3.196715
H       -7.467705         0.525087        -3.476174
O       -6.450851         1.119991        -1.805113
C       -5.818496         2.234281        -2.355084
H       -5.950268         3.043890        -1.649129
H       -6.293640         2.521740        -3.292767
C       -4.332155         2.041698        -2.593335
H       -4.147539         1.175524        -3.226192
H       -3.944792         2.915730        -3.118034
O       -3.691260         1.889793        -1.365327
C       -2.319139         1.659842        -1.442596
H       -1.812476         2.476391        -1.953966
H       -2.115127         0.746394        -1.999404
C       -1.796937         1.551765        -0.019496
H       -2.326667         0.763244         0.507038
H       -1.986154         2.482124         0.499231
O       -0.413028         1.335585         0.000000
C        0.000000         0.000000        -0.000000
H       -0.367287        -0.530780        -0.873734
H       -0.386315        -0.510377         0.879288
C        1.520119         0.000000         0.000000
H        1.888488         0.580366         0.835612
H        1.879217         0.477236        -0.902617
S        2.242560        -1.667241         0.016063
C        2.183538        -2.106393         1.783052
H        1.219999        -1.843062         2.198125
H        2.255618        -3.185995         1.805177
C        3.309609        -1.476927         2.600513
H        3.246914        -0.396969         2.564199
H        4.274124        -1.754446         2.194592
S        3.257451        -1.891622         4.370824
C        3.857559        -3.612838         4.360415
H        4.808483        -3.644443         3.843375
H        3.163146        -4.250942         3.831665
C        4.006843        -4.103548         5.798615
H        4.669212        -3.457081         6.359050
H        3.045582        -4.083052         6.296891
S        4.571784        -5.826847         5.923721
C        6.356589        -5.694874         5.588682
H        6.670847        -6.715866         5.407384
H        6.512046        -5.152789         4.663800
C        7.179373        -5.087995         6.721272
H        6.894610        -4.061192         6.921886
H        7.055536        -5.655650         7.635975
H        8.232962        -5.090631         6.456340
 

