%Mem=61440MB 
%NProc=8 

#P HF/6-31G(d)  SCF(Conver=8,XQC,MaxConventionalCycles=64,MaxCycle=128) NoSymm Test 
   Pop=mk IOp(6/33=2) GFInput GFPrint 

 MEP step - Input generated by PyRED DVE-DMDS-OPLS 

0 1 
C       -5.462183         5.055013        -0.676036
H       -4.941777         5.747692        -1.327700
H       -5.168235         4.047067        -0.946311
H       -6.529776         5.159511        -0.842441
C       -5.121498         5.335442         0.774231
H       -5.428606         6.344003         1.049345
H       -5.649514         4.645428         1.430921
O       -3.740604         5.195138         0.944338
C       -3.285887         5.438613         2.240581
H       -3.783228         4.782090         2.952018
H       -3.503232         6.468564         2.526700
C       -1.788527         5.213960         2.314863
H       -1.300298         5.767114         1.516334
H       -1.432038         5.603401         3.261873
O       -1.420380         3.867290         2.283747
C       -1.279739         3.271510         1.023705
H       -0.629706         3.867644         0.387832
H       -2.233052         3.167237         0.523524
C       -0.658340         1.909009         1.250669
H       -1.303048         1.314076         1.893469
H        0.296892         2.026722         1.755102
O       -0.512128         1.299905         0.000000
C        0.000000         0.000000        -0.000000
H       -0.356252        -0.478019        -0.902635
H       -0.388224        -0.560717         0.846557
C        1.527222        -0.000000         0.000000
H        1.925149         0.504954         0.871656
H        1.879030         0.537383        -0.871606
S        2.257242        -1.659732        -0.106667
C        2.109847        -2.232722         1.615920
H        2.595796        -1.519537         2.269834
H        1.067474        -2.300140         1.898206
C        2.773666        -3.600875         1.747102
H        3.823006        -3.530211         1.488474
H        2.301803        -4.304045         1.073290
S        2.620579        -4.181565         3.465689
C        3.600836        -5.713671         3.418561
H        3.809642        -5.954848         4.452481
H        4.550240        -5.503981         2.941930
C        2.886290        -6.887037         2.751268
H        1.965852        -7.099409         3.279178
H        2.617827        -6.657501         1.728831
S        3.839318        -8.436607         2.795579
C        5.058247        -8.203554         1.462937
H        5.565416        -7.255806         1.597710
H        5.796379        -8.977773         1.635040
C        4.494909        -8.324490         0.050014
H        3.756258        -7.558152        -0.157698
H        5.293505        -8.216414        -0.678529
H        4.025926        -9.290140        -0.097483
 

