%Mem=61440MB 
%NProc=8 

#P HF/6-31G(d)  SCF(Conver=8,XQC,MaxConventionalCycles=64,MaxCycle=128) NoSymm Test 
   Pop=mk IOp(6/33=2) GFInput GFPrint 

 MEP step - Input generated by PyRED DVE-DMDS-OPLS 

0 1 
C       -6.126238         3.279635        -2.285000
H       -5.867847         2.284426        -2.628983
H       -6.511790         3.202254        -1.274589
H       -6.910411         3.672634        -2.924381
C       -4.909871         4.183577        -2.320090
H       -4.527248         4.269320        -3.335861
H       -5.171325         5.186896        -1.985440
O       -3.927229         3.643149        -1.484308
C       -2.746495         4.383558        -1.417643
H       -2.939427         5.363427        -0.978966
H       -2.333432         4.535880        -2.412400
C       -1.733312         3.645742        -0.566880
H       -0.884678         4.298609        -0.394385
H       -2.174465         3.410617         0.397772
O       -1.246199         2.498060        -1.199939
C       -1.881622         1.279286        -0.905590
H       -1.784643         0.657901        -1.787132
H       -2.936915         1.436506        -0.717186
C       -1.254367         0.554549         0.273866
H       -1.892770        -0.280125         0.541523
H       -1.194938         1.215567         1.137589
O        0.000000         0.000000         0.000000
C        1.096034         0.870765         0.000000
H        1.076235         1.499334         0.888518
H        1.081600         1.518330        -0.866556
C        2.343664        -0.000000        -0.000000
H        2.358770        -0.603811        -0.898846
H        2.313570        -0.659722         0.856526
S        3.830935         1.047209         0.047416
C        5.143231        -0.175938        -0.249183
H        4.894063        -0.767217        -1.121143
H        6.016993         0.412759        -0.496745
C        5.429262        -1.077871         0.948772
H        4.544804        -1.642911         1.213152
H        5.700143        -0.485951         1.813648
S        6.702997        -2.346705         0.662989
C        8.260140        -1.393625         0.692502
H        8.977515        -2.005350         1.222791
H        8.111430        -0.500045         1.283789
C        8.806317        -1.065366        -0.697403
H        8.923711        -1.981141        -1.261197
H        8.124445        -0.438171        -1.256572
S       10.447465        -0.268928        -0.666252
C       10.057761         1.498177        -0.863017
H       11.018298         1.957481        -1.064646
H        9.456204         1.623420        -1.755902
C        9.399472         2.176744         0.333925
H        9.295004         3.241263         0.144289
H        8.407517         1.782130         0.524577
H        9.993209         2.046173         1.231196
 

