%Mem=61440MB 
%NProc=8 

#P HF/6-31G(d)  SCF(Conver=8,XQC,MaxConventionalCycles=64,MaxCycle=128) NoSymm Test 
   Pop=mk IOp(6/33=2) GFInput GFPrint 

 MEP step - Input generated by PyRED DVE-DMDS-OPLS 

0 1 
C       -7.301113         2.158152         2.285000
H       -6.519642         2.826366         2.628983
H       -7.572988         2.442268         1.274589
H       -8.169079         2.284686         2.924381
C       -6.821008         0.720738         2.320090
H       -6.556320         0.431442         3.335861
H       -7.609632         0.047627         1.985440
O       -5.705915         0.601513         1.484308
C       -5.161436        -0.681407         1.417643
H       -5.880450        -1.374505         0.978966
H       -4.909892        -1.042721         2.412400
C       -3.908329        -0.656248         0.566880
H       -3.586079        -1.677311         0.394385
H       -4.135518        -0.210956        -0.397772
O       -2.852035         0.006095         1.199939
C       -2.675564         1.369190         0.905590
H       -2.240404         1.823239         1.787132
H       -3.630913         1.844237         0.717186
C       -1.746412         1.604500        -0.273866
H       -1.792215         2.654329        -0.541523
H       -2.075997         1.028435        -1.137589
O       -0.400416         1.341339         0.000000
C        0.000000        -0.000000         0.000000
H       -0.375982        -0.504112        -0.888518
H       -0.382454        -0.522760         0.866556
C        1.521451         0.000000         0.000000
H        1.879415         0.486496         0.898846
H        1.874348         0.558213        -0.856526
S        2.141708        -1.709942        -0.047416
C        3.917864        -1.457990         0.249183
H        4.051943        -0.830520         1.121143
H        4.297446        -2.440812         0.496745
C        4.668616        -0.882083        -0.948772
H        4.266724         0.087463        -1.213152
H        4.551975        -1.522505        -1.813648
S        6.439299        -0.570596        -0.662989
C        7.170725        -2.243340        -0.692502
H        8.109098        -2.152281        -1.222791
H        6.537360        -2.890989        -1.283789
C        7.430734        -2.825112         0.697403
H        8.051122        -2.141339         1.261197
H        6.512621        -2.949176         1.256572
S        8.320697        -4.417483         0.666252
C        6.989771        -5.643519         0.863017
H        7.514566        -6.569900         1.064646
H        6.424798        -5.401935         1.755902
C        6.061595        -5.823206        -0.333925
H        5.366677        -6.636350        -0.144289
H        5.474013        -4.931892        -0.524577
H        6.623204        -6.055946        -1.231196
 

