%Mem=61440MB 
%NProc=8 

#P HF/6-31G(d)  SCF(Conver=8,XQC,MaxConventionalCycles=64,MaxCycle=128) NoSymm Test 
   Pop=mk IOp(6/33=2) GFInput GFPrint 

 MEP step - Input generated by PyRED DVE-DMDS-OPLS 

0 1 
C        5.628317         0.967035        -3.779867
H        5.675464         1.889831        -4.349247
H        6.644828         0.684477        -3.523844
H        5.211176         0.193384        -4.415379
C        4.797081         1.115555        -2.512984
H        4.823840         0.194750        -1.947511
H        5.201127         1.904754        -1.882083
O        3.438299         1.365582        -2.768030
C        3.119190         2.651929        -3.203290
H        3.391583         2.786459        -4.248186
H        3.648621         3.398367        -2.616390
C        1.631633         2.876229        -3.057181
H        1.357414         3.787381        -3.588352
H        1.099347         2.048200        -3.519510
O        1.313705         2.998748        -1.703790
C       -0.041410         3.198024        -1.415707
H       -0.512261         3.787754        -2.201244
H       -0.088558         3.765996        -0.495944
C       -0.814423         1.904069        -1.226005
H       -0.618541         1.225810        -2.051503
H       -1.877877         2.131195        -1.235098
O       -0.503825         1.306883         0.000000
C        0.000000         0.000000        -0.000000
H       -0.389512        -0.556708        -0.847574
H       -0.365645        -0.480082         0.898412
C        1.524632        -0.000000        -0.000000
H        1.877633         0.475983         0.906197
H        1.919036         0.564462        -0.832027
S        2.243100        -1.669157        -0.007169
C        2.105700        -2.105080        -1.769440
H        1.058184        -2.199464        -2.033020
H        2.532751        -1.307801        -2.363140
C        2.791866        -3.434022        -2.091072
H        2.480581        -3.740576        -3.082235
H        2.468105        -4.210389        -1.409063
S        4.613383        -3.393189        -2.152603
C        5.125926        -3.989302        -0.508549
H        4.572122        -3.471399         0.260258
H        6.159965        -3.680251        -0.422599
C        5.005560        -5.503229        -0.348220
H        3.970579        -5.811143        -0.427742
H        5.546887        -6.013854        -1.133018
S        5.541855        -6.113199         1.280567
C        7.357101        -6.026787         1.173300
H        7.656459        -5.028354         0.878611
H        7.691204        -6.161661         2.195216
C        7.999730        -7.076415         0.271348
H        7.694402        -6.961562        -0.762744
H        9.081668        -6.983257         0.306224
H        7.732436        -8.076762         0.591182
 

