%Mem=61440MB 
%NProc=8 

#P HF/6-31G(d)  SCF(Conver=8,XQC,MaxConventionalCycles=64,MaxCycle=128) NoSymm Test 
   Pop=mk IOp(6/33=2) GFInput GFPrint 

 MEP step - Input generated by PyRED DVE-DMDS-OPLS 

0 1 
C       -7.010639         0.271202         2.197092
H       -7.749715         0.223075         1.404198
H       -6.631259        -0.730218         2.370125
H       -7.515211         0.606679         3.098189
C       -5.867608         1.217960         1.855616
H       -6.249053         2.218009         1.657869
H       -5.187408         1.288083         2.694832
O       -5.090026         0.783159         0.774444
C       -5.657230         0.915522        -0.493809
H       -6.123197         1.891663        -0.606775
H       -6.417948         0.155742        -0.663397
C       -4.565951         0.761420        -1.529606
H       -4.016223        -0.152689        -1.328153
H       -5.016735         0.670392        -2.514949
O       -3.722403         1.877651        -1.513813
C       -2.344411         1.645542        -1.468322
H       -1.861801         2.510138        -1.905552
H       -2.075012         0.782025        -2.072066
C       -1.858771         1.478824        -0.033220
H       -2.358416         0.648800         0.453863
H       -2.099907         2.374519         0.524000
O       -0.463913         1.319457        -0.000000
C        0.000000         0.000000         0.000000
H       -0.346027        -0.525400        -0.889756
H       -0.376972        -0.532288         0.868925
C        1.518174         0.000000        -0.000000
H        1.890588         0.586387        -0.830013
H        1.865278        -1.016615        -0.148348
S        2.326101         0.513392         1.542752
C        2.012756         2.302267         1.664715
H        0.962557         2.466023         1.854181
H        2.566169         2.600337         2.547159
C        2.424329         3.167519         0.476800
H        2.205117         4.196550         0.739301
H        1.827524         2.920722        -0.390763
S        4.194374         3.025581         0.071670
C        4.358634         4.425147        -1.076027
H        3.487849         4.440216        -1.723898
H        5.209774         4.195591        -1.704077
C        4.531324         5.801107        -0.427091
H        4.368389         6.572881        -1.170861
H        3.788174         5.953008         0.344970
S        6.136772         6.086927         0.376367
C        7.202019         6.504161        -1.039492
H        8.211955         6.384926        -0.665709
H        7.071126         5.762175        -1.818665
C        7.014504         7.913741        -1.593468
H        6.012134         8.066509        -1.978484
H        7.193854         8.656949        -0.825445
H        7.710619         8.089420        -2.409114
 

