%Mem=61440MB 
%NProc=8 

#P HF/6-31G(d)  SCF(Conver=8,XQC,MaxConventionalCycles=64,MaxCycle=128) NoSymm Test 
   Pop=mk IOp(6/33=2) GFInput GFPrint 

 MEP step - Input generated by PyRED DVE-DMDS-OPLS 

0 1 
C       -2.310728         7.063148         0.479577
H       -2.310028         6.525669        -0.461800
H       -3.193260         7.694306         0.517776
H       -1.430775         7.695383         0.510716
C       -2.301985         6.089903         1.642042
H       -2.311257         6.628599         2.589179
H       -3.194946         5.468679         1.614380
O       -1.145661         5.308968         1.549803
C       -0.935887         4.391371         2.578345
H       -1.195419         4.827897         3.542371
H        0.123644         4.170688         2.584762
C       -1.698343         3.090818         2.404821
H       -1.550549         2.476094         3.292919
H       -2.767188         3.274906         2.310931
O       -1.221445         2.430999         1.272653
C       -1.872151         1.233420         0.977482
H       -2.926600         1.421242         0.771920
H       -1.813609         0.544911         1.818829
C       -1.242481         0.591988        -0.243714
H       -1.167649         1.330577        -1.037807
H       -1.892697        -0.205864        -0.584159
O       -0.000000         0.000000        -0.000000
C        1.119852         0.847312         0.000000
H        1.103916         1.510547         0.853440
H        1.110669         1.459052        -0.901310
C        2.379549        -0.000000         0.000000
H        3.233016         0.650714        -0.155939
H        2.359967        -0.701146        -0.824379
S        2.776249        -0.865329         1.547645
C        1.521872        -2.176518         1.684519
H        1.804767        -2.713372         2.581970
H        0.554807        -1.726048         1.850518
C        1.401311        -3.148609         0.513954
H        1.057021        -2.624503        -0.365983
H        0.647292        -3.884391         0.773193
S        2.957142        -4.032000         0.168855
C        2.341902        -5.423642        -0.823545
H        1.510632        -5.891610        -0.309272
H        3.151995        -6.141765        -0.844761
C        1.951013        -5.043021        -2.249653
H        1.165559        -4.299367        -2.240520
H        2.807189        -4.626084        -2.764795
S        1.379974        -6.528012        -3.137493
C        1.197974        -5.892062        -4.831514
H        2.128511        -5.420996        -5.127193
H        1.082344        -6.776970        -5.446032
C        0.018544        -4.948136        -5.046659
H        0.118390        -4.040667        -4.461505
H       -0.040197        -4.659907        -6.092533
H       -0.914771        -5.425554        -4.771400
 

