%Mem=61440MB 
%NProc=8 

#P HF/6-31G(d)  SCF(Conver=8,XQC,MaxConventionalCycles=64,MaxCycle=128) NoSymm Test 
   Pop=mk IOp(6/33=2) GFInput GFPrint 

 MEP step - Input generated by PyRED DVE-DMDS-OPLS 

0 1 
C       -1.926164         0.167618         7.635190
H       -0.984743         0.457239         8.090916
H       -2.717327         0.742564         8.107430
H       -2.092240        -0.883237         7.843636
C       -1.918541         0.408378         6.132792
H       -2.872085         0.120571         5.707782
H       -1.774984         1.464846         5.916860
O       -0.946162        -0.366965         5.481764
C        0.338614         0.183471         5.390040
H        1.040479        -0.641057         5.404456
H        0.550685         0.816642         6.249153
C        0.556310         0.988029         4.117557
H       -0.231662         1.729536         3.997717
H        1.498244         1.518610         4.205785
O        0.664014         0.200118         2.967863
C       -0.533776        -0.251449         2.387316
H       -1.220075         0.580594         2.243328
H       -1.013663        -0.978313         3.031670
C       -0.231172        -0.898660         1.050013
H       -1.099749        -1.467529         0.742594
H        0.592564        -1.594455         1.164470
O        0.000000         0.000000         0.000000
C        1.163480         0.772687         0.000000
H        1.182879         1.446332         0.849183
H        1.095741         1.379602        -0.893830
C        2.481226        -0.000000        -0.000000
H        2.637811        -0.482863         0.955734
H        3.285029         0.717835        -0.124040
S        2.677437        -1.329890        -1.225440
C        2.378635        -0.482589        -2.811384
H        2.653710         0.559902        -2.716498
H        3.067410        -0.924952        -3.519375
C        0.939288        -0.621091        -3.306278
H        0.248770        -0.207783        -2.585768
H        0.680285        -1.665952        -3.417916
S        0.622258         0.262700        -4.867239
C        1.326524        -0.861883        -6.114985
H        2.297008        -1.207002        -5.783628
H        1.492510        -0.254819        -6.995115
C        0.408350        -2.031581        -6.464154
H        0.164676        -2.618057        -5.588464
H       -0.525699        -1.653972        -6.858837
S        1.078942        -3.121457        -7.758732
C        2.282124        -4.139725        -6.846980
H        2.888198        -4.599094        -7.618706
H        2.941429        -3.496545        -6.276465
C        1.666836        -5.215666        -5.956898
H        1.056625        -4.788027        -5.169052
H        1.043145        -5.885922        -6.536598
H        2.451185        -5.799972        -5.483987
 

