%chk=03-IsoP_005_gaussian.chk
%nproc=1
%mem=1000Mb
#p opt pm3

Conformer number 005. Energy MM = 23.242 kcal/mol

0 1
C  -0.6331    -0.4522    -0.7035
H  -0.5878    -1.2445    0.0532
H  -0.3069    -0.9338    -1.6352
C  -2.0554    0.0405    -0.8743
C  -2.3848    0.5782    -2.2433
H  -1.7457    1.4340    -2.4824
H  -2.2300    -0.1955    -3.0024
H  -3.4252    0.9119    -2.3185
C  -2.9962    -0.0017    0.0898
H  -3.9980    0.3581    -0.1433
C  -2.8348    -0.4761    1.4994
H  -1.7986    -0.6886    1.7718
H  -3.4270    -1.3826    1.6565
H  -3.2009    0.2933    2.1869
C  3.8382    -0.5355    0.9410
H  4.4852    0.1747    1.4663
H  3.9213    -1.5111    1.4311
H  4.2217    -0.6423    -0.0792
C  2.4100    -0.0570    0.9686
C  1.8413    0.1134    2.3503
H  0.7709    0.3313    2.3556
H  1.9798    -0.8059    2.9296
H  2.3545    0.9287    2.8705
C  1.7400    0.1720    -0.1778
H  2.2530    -0.0054    -1.1232
C  0.3310    0.6792    -0.3328
H  -0.0132    1.1920    0.5714
H  0.3352    1.4434    -1.1204

