%chk=03-IsoP_238_gaussian.chk
%nproc=1
%mem=1000Mb
#p opt pm3

Conformer number 238. Energy MM = 23.959 kcal/mol

0 1
C  -1.5210    0.6184    0.9315
H  -2.4277    0.2455    1.4247
H  -1.5778    1.7100    1.0358
C  -1.5629    0.2429    -0.5369
C  -1.0628    1.2990    -1.4888
H  -1.1428    0.9846    -2.5349
H  -1.6482    2.2175    -1.3761
H  -0.0119    1.5314    -1.2965
C  -2.0414    -0.9269    -1.0062
H  -2.0455    -1.0937    -2.0829
C  -2.5755    -2.0759    -0.2113
H  -2.5158    -1.9237    0.8687
H  -3.6238    -2.2502    -0.4726
H  -2.0091    -2.9815    -0.4507
C  3.2631    1.1864    0.4583
H  3.4364    1.3345    -0.6127
H  4.1476    0.7081    0.8918
H  3.1614    2.1751    0.9181
C  2.0463    0.3255    0.6760
C  2.1429    -1.0447    0.0637
H  1.2203    -1.6236    0.1390
H  2.9383    -1.6184    0.5505
H  2.3804    -0.9628    -1.0025
C  0.9827    0.8000    1.3540
H  1.0265    1.8203    1.7351
C  -0.2974    0.0805    1.6879
H  -0.4720    0.2231    2.7625
H  -0.2104    -1.0014    1.5522

