%chk=AtacPS_uff_003_gaussian.chk
%nproc=4
%mem=4000Mb
#p 6-31g* mp2

Conformer number 003. Energy MM = 124.487 kcal/mol

0 1
C          5.35860        1.99640       -8.59220
C          6.75000        2.00390       -8.36630
H          7.26670        2.92430       -8.12760
C          7.48670        0.81810       -8.44610
H          8.55440        0.83250       -8.27030
C          6.84730       -0.38520       -8.75150
H          7.41950       -1.30210       -8.81240
C          5.46960       -0.40600       -8.97810
H          4.97510       -1.33930       -9.21450
C          4.72770        0.77630       -8.89920
H          3.66040        0.73700       -9.07780
C          4.53700        3.27200       -8.50680
H          3.47220        3.02590       -8.71860
C          5.00380        4.26990       -9.57970
H          6.05400        4.58520       -9.40400
H          4.93590        3.80030      -10.58430
H          4.36090        5.17240       -9.59470
C          3.72620        5.53210       -5.42600
C          4.91480        6.08770       -4.91910
H          5.79350        6.17170       -5.54610
C          4.97390        6.54440       -3.59900
H          5.89130        6.97200       -3.21550
C          3.84990        6.45040       -2.77420
H          3.89760        6.80380       -1.75240
C          2.66410        5.90210       -3.26920
H          1.79410        5.83060       -2.62930
C          2.59920        5.44630       -4.58980
H          1.67170        5.02390       -4.95610
C          3.65970        5.04230       -6.85190
H          2.62680        4.70660       -7.09210
H          3.91080        5.89120       -7.52000
C          4.61280        3.85500       -7.07580
H          4.31870        3.05360       -6.36110
H          5.65740        4.15630       -6.84710

