%chk=AtacPS_uff_002_gaussian.chk
%nproc=4
%mem=4000Mb
#p 6-31g* mp2

Conformer number 002. Energy MM = 118.355 kcal/mol

0 1
C          5.31620        1.98110       -8.58990
C          6.68850        1.96010       -8.26920
H          7.20660        2.86950       -7.99480
C          7.40360        0.75970       -8.29590
H          8.45690        0.75240       -8.04660
C          6.76160       -0.43070       -8.64380
H          7.31730       -1.35940       -8.66330
C          5.40240       -0.42310       -8.96450
H          4.90610       -1.34680       -9.23300
C          4.68140        0.77460       -8.93820
H          3.62800        0.75900       -9.18800
C          4.51980        3.27590       -8.55570
H          3.46270        3.07300       -8.84090
C          5.07670        4.26880       -9.58480
H          6.12590        4.54720       -9.35010
H          5.04360        3.82120      -10.60120
H          4.46240        5.19440       -9.59410
C          3.90850        3.59860       -4.71950
C          3.22940        4.80100       -4.45170
H          2.66610        5.30010       -5.22980
C          3.27230        5.36630       -3.17330
H          2.74890        6.29230       -2.97390
C          3.98960        4.73730       -2.15250
H          4.02190        5.17640       -1.16360
C          4.66350        3.54060       -2.40730
H          5.21800        3.05330       -1.61530
C          4.62400        2.97150       -3.68330
H          5.15380        2.04410       -3.86160
C          3.87020        2.98130       -6.09640
H          4.41880        2.01510       -6.08260
H          2.81480        2.77000       -6.37390
C          4.51500        3.90570       -7.14450
H          5.55560        4.14410       -6.83400
H          3.94390        4.85850       -7.18440

