%Mem=61440MB 
%NProc=8 

#P B3LYP/6-31G(d) Integral=Ultrafine Opt=(Tight,MaxCycle=55) GFInput GFPrint SCF(Conver=8,XQC,MaxConventionalCycles=64,MaxCycle=128) Test 

 Optimization step - Input generated by PyRED DVE-DMDS-OPLS 

0 1 
C       -2.998000         4.360000        -0.181000
H       -2.708000         4.986000        -1.030000
H       -3.977000         3.919000        -0.391000
H       -3.084000         4.999000         0.702000
C       -1.966000         3.276000         0.053000
H       -2.253000         2.642000         0.905000
H       -1.896000         2.622000        -0.829000
O       -0.726000         3.904000         0.318000
C        0.305000         3.030000         0.712000
H       -0.065000         2.266000         1.411000
H        1.042000         3.640000         1.245000
C        0.974000         2.348000        -0.480000
H        0.273000         1.675000        -0.983000
H        1.293000         3.103000        -1.210000
O        2.070000         1.555000        -0.053000
C        3.305000         2.248000        -0.033000
H        3.206000         3.198000         0.512000
H        3.626000         2.476000        -1.060000
C        4.365000         1.412000         0.656000
H        3.993000         1.100000         1.642000
H        5.243000         2.047000         0.813000
O        4.808000         0.303000        -0.090000
C        4.112000        -0.918000         0.087000
H        3.472000        -0.863000         0.976000
H        4.855000        -1.706000         0.257000
C        3.288000        -1.252000        -1.148000
H        3.950000        -1.339000        -2.014000
H        2.582000        -0.445000        -1.350000
S        2.436000        -2.859000        -1.046000
C        1.273000        -2.603000         0.338000
H        0.751000        -3.560000         0.419000
H        1.812000        -2.454000         1.276000
C        0.290000        -1.462000         0.109000
H       -0.230000        -1.590000        -0.846000
H        0.827000        -0.512000         0.065000
S       -0.910000        -1.225000         1.461000
C       -1.932000        -2.729000         1.343000
H       -2.556000        -2.706000         2.240000
H       -1.287000        -3.610000         1.426000
C       -2.818000        -2.865000         0.106000
H       -2.231000        -2.809000        -0.817000
H       -3.271000        -3.862000         0.122000
S       -4.210000        -1.697000        -0.011000
C       -3.500000        -0.356000        -1.026000
H       -2.663000         0.094000        -0.489000
H       -3.124000        -0.786000        -1.960000
C       -4.577000         0.681000        -1.319000
H       -5.421000         0.238000        -1.855000
H       -4.959000         1.124000        -0.394000
H       -4.168000         1.486000        -1.937000
 

