%Mem=61440MB 
%NProc=8 

#P B3LYP/6-31G(d) Integral=Ultrafine Opt=(Tight,MaxCycle=55) GFInput GFPrint SCF(Conver=8,XQC,MaxConventionalCycles=64,MaxCycle=128) Test 

 Optimization step - Input generated by PyRED DVE-DMDS-OPLS 

0 1 
C       10.561000         1.765000         1.050000
H       10.726000         2.829000         1.244000
H       10.585000         1.229000         2.003000
H       11.379000         1.392000         0.428000
C        9.232000         1.550000         0.356000
H        8.411000         1.936000         0.978000
H        9.201000         2.096000        -0.600000
O        9.082000         0.164000         0.119000
C        7.906000        -0.190000        -0.571000
H        8.100000        -1.143000        -1.070000
H        7.659000         0.551000        -1.345000
C        6.723000        -0.357000         0.371000
H        6.958000        -1.125000         1.124000
H        6.513000         0.581000         0.909000
O        5.613000        -0.736000        -0.408000
C        4.445000        -0.950000         0.344000
H        4.151000        -0.032000         0.880000
H        4.595000        -1.737000         1.098000
C        3.348000        -1.373000        -0.620000
H        3.635000        -2.305000        -1.113000
H        3.228000        -0.607000        -1.397000
O        2.140000        -1.611000         0.074000
C        1.276000        -0.497000         0.170000
H        1.837000         0.442000         0.268000
H        0.696000        -0.630000         1.088000
C        0.344000        -0.422000        -1.036000
H       -0.180000        -1.373000        -1.159000
H        0.919000        -0.254000        -1.951000
S       -0.844000         0.955000        -0.936000
C       -2.118000         0.248000         0.166000
H       -1.647000        -0.230000         1.027000
H       -2.674000         1.109000         0.545000
C       -3.052000        -0.726000        -0.543000
H       -2.495000        -1.586000        -0.922000
H       -3.521000        -0.248000        -1.407000
S       -4.326000        -1.434000         0.555000
C       -5.508000        -0.049000         0.683000
H       -4.973000         0.883000         0.881000
H       -6.107000        -0.259000         1.573000
C       -6.403000         0.098000        -0.544000
H       -5.797000         0.276000        -1.435000
H       -6.966000        -0.823000        -0.723000
S       -7.572000         1.498000        -0.429000
C       -9.104000         0.668000         0.112000
H       -9.865000         1.451000         0.044000
H       -9.367000        -0.094000        -0.629000
C       -9.078000         0.077000         1.514000
H       -8.366000        -0.750000         1.589000
H       -8.802000         0.832000         2.255000
H      -10.066000        -0.318000         1.776000
 

