%Mem=61440MB 
%NProc=8 

#P B3LYP/6-31G(d) Integral=Ultrafine SCF(Conver=8,XQC,MaxConventionalCycles=64,MaxCycle=128) NoSymm Test 
   Pop=mk IOp(6/33=2) GFInput GFPrint 

 MEP step - Input generated by PyRED DVE-DMDS-OPLS 

0 1 
C       -6.917015        -0.731962        -2.715664
H       -7.285969        -1.748550        -2.541519
H       -7.335170        -0.077832        -1.943206
H       -7.298060        -0.403352        -3.689702
C       -5.390499        -0.664978        -2.699947
H       -4.968658        -1.331554        -3.470218
H       -5.059608         0.353799        -2.927640
O       -4.818763        -0.967387        -1.432697
C       -4.826869        -2.342816        -1.090788
H       -4.395762        -2.946894        -1.906186
H       -5.853687        -2.703728        -0.911286
C       -4.010931        -2.557645         0.177471
H       -4.348467        -1.849964         0.951032
H       -4.202448        -3.575121         0.538980
O       -2.610083        -2.471267        -0.007828
C       -2.072828        -1.155789        -0.008121
H       -2.401202        -0.600779         0.884777
H       -2.391723        -0.588169        -0.889333
C       -0.558124        -1.302367         0.006758
H       -0.230572        -1.875890        -0.875555
H       -0.244186        -1.862445         0.902104
O        0.000000        -0.000000         0.000000
C        1.414938         0.000000        -0.000000
H        1.800079        -0.530089        -0.887315
H        1.809416        -0.520323         0.887394
C        1.873984         1.454412         0.000000
H        1.533337         1.950655         0.913624
H        1.429093         1.991202        -0.843676
S        3.700226         1.634584        -0.024110
C        4.069704         1.417563        -1.816921
H        5.133067         1.162623        -1.850791
H        3.518031         0.558317        -2.209431
C        3.785945         2.672189        -2.643994
H        4.374088         3.519496        -2.277213
H        2.731232         2.953534        -2.561517
S        4.058777         2.482616        -4.454911
C        5.899286         2.521823        -4.591089
H        6.288886         3.120934        -3.761596
H        6.121429         3.065647        -5.513598
C        6.548643         1.136482        -4.642923
H        6.340414         0.559966        -3.735629
H        6.143264         0.566363        -5.484196
S        8.365392         1.182749        -4.920817
C        8.964700         1.701810        -3.259220
H        8.585060         2.702002        -3.025123
H        8.569529         1.003502        -2.512248
C       10.493095         1.700364        -3.237179
H       10.891230         0.703096        -3.451052
H       10.901059         2.396071        -3.978045
H       10.854800         2.007527        -2.249420
 

