%Mem=61440MB 
%NProc=8 

#P B3LYP/6-31G(d) Integral=Ultrafine SCF(Conver=8,XQC,MaxConventionalCycles=64,MaxCycle=128) NoSymm Test 
   Pop=mk IOp(6/33=2) GFInput GFPrint 

 MEP step - Input generated by PyRED DVE-DMDS-OPLS 

0 1 
C        2.842725        -5.750078         0.850483
H        2.248132        -6.654091         0.680531
H        3.487050        -5.593763        -0.021101
H        3.480713        -5.932220         1.723144
C        1.965511        -4.522682         1.090371
H        1.310662        -4.680347         1.962648
H        2.593622        -3.651033         1.303057
O        1.183538        -4.152943        -0.041661
C        0.043905        -4.966810        -0.265437
H       -0.592302        -4.993512         0.634257
H        0.333276        -6.003109        -0.506276
C       -0.754350        -4.405744        -1.434637
H       -0.093432        -4.301937        -2.308343
H       -1.539342        -5.127721        -1.690061
O       -1.420730        -3.188521        -1.154362
C       -0.656508        -1.991844        -1.279246
H       -1.158176        -1.331275        -1.999545
H        0.350140        -2.208494        -1.652746
C       -0.592203        -1.291261         0.080878
H       -0.053532        -1.926809         0.796518
H       -1.611668        -1.141404         0.450607
O        0.000000         0.000000        -0.000000
C        1.420928        -0.000000         0.000000
H        1.812179        -0.508628        -0.896884
H        1.801583        -0.537694         0.882045
C        1.920536         1.437838         0.000000
H        1.490257         1.993100        -0.839655
H        3.007135         1.433329        -0.141296
S        1.689290         2.386624         1.553417
C       -0.129881         2.656863         1.647822
H       -0.618561         1.711117         1.893276
H       -0.240521         3.338274         2.497903
C       -0.804835         3.240286         0.408620
H       -1.855866         3.428539         0.659950
H       -0.784193         2.509436        -0.405418
S       -0.031201         4.818010        -0.143694
C       -1.322073         5.363729        -1.331222
H       -1.637448         4.494728        -1.923488
H       -0.816746         6.048003        -2.020072
C       -2.552722         6.038861        -0.712646
H       -3.348185         6.117969        -1.463880
H       -2.954267         5.434038         0.106392
S       -2.256075         7.699865         0.012399
C       -2.251830         8.752434        -1.497552
H       -1.800977         9.693923        -1.166369
H       -1.564823         8.319649        -2.233878
C       -3.629175         9.006501        -2.109632
H       -4.104246         8.076704        -2.441457
H       -4.296499         9.483928        -1.385482
H       -3.541729         9.663091        -2.984815
 

