%Mem=61440MB 
%NProc=8 

#P B3LYP/6-31G(d) Integral=Ultrafine SCF(Conver=8,XQC,MaxConventionalCycles=64,MaxCycle=128) NoSymm Test 
   Pop=mk IOp(6/33=2) GFInput GFPrint 

 MEP step - Input generated by PyRED DVE-DMDS-OPLS 

0 1 
C        3.470889         2.082698         7.740306
H        2.793600         1.319112         8.139357
H        4.438155         1.968694         8.244017
H        3.061175         3.066025         7.992299
C        3.638633         1.951881         6.228464
H        4.323959         2.721376         5.857062
H        4.076425         0.975273         5.970434
O        2.413004         2.157241         5.528183
C        1.586648         1.005800         5.409293
H        0.556176         1.370118         5.332745
H        1.653439         0.375389         6.310248
C        1.895348         0.151879         4.178645
H        2.968815        -0.097078         4.143206
H        1.337229        -0.789050         4.261769
O        1.481335         0.736259         2.954177
C        2.345183         1.747214         2.434638
H        3.376531         1.365275         2.361540
H        2.354570         2.621394         3.098017
C        1.853950         2.167033         1.057037
H        2.358657         3.099410         0.782596
H        0.776150         2.373869         1.098237
O        2.168166         1.268408         0.000000
C        1.532490        -0.000000         0.000000
H        1.854563        -0.599881         0.862207
H        1.906315        -0.491210        -0.904665
C        0.000000         0.000000         0.000000
H       -0.378966         0.336702         0.969502
H       -0.333752        -1.036325        -0.132659
S       -0.853804         1.074990        -1.223935
C       -0.063204         0.578646        -2.814155
H        0.254259        -0.466376        -2.745749
H       -0.857333         0.621055        -3.566041
C        1.107638         1.483641        -3.206517
H        1.874414         1.480300        -2.427982
H        0.771923         2.520304        -3.310261
S        1.954621         0.950063        -4.752744
C        0.792225         1.552341        -6.049917
H       -0.232567         1.292949        -5.766382
H        1.030451         0.974190        -6.947265
C        0.932272         3.047976        -6.338314
H        0.771613         3.647513        -5.436965
H        1.944265         3.267583        -6.690364
S       -0.190079         3.643039        -7.671162
C       -1.791215         3.800642        -6.774811
H       -2.537379         3.881190        -7.572360
H       -1.999510         2.865325        -6.243605
C       -1.880902         5.002259        -5.834879
H       -1.137406         4.946768        -5.032423
H       -1.718254         5.937503        -6.379344
H       -2.871461         5.042856        -5.364329
 

