%Mem=61440MB 
%NProc=8 

#P B3LYP/6-31G(d) Integral=Ultrafine SCF(Conver=8,XQC,MaxConventionalCycles=64,MaxCycle=128) NoSymm Test 
   Pop=mk IOp(6/33=2) GFInput GFPrint 

 MEP step - Input generated by PyRED DVE-DMDS-OPLS 

0 1 
C       -0.753890         1.237354         8.110103
H       -0.808748         1.803301         9.047434
H       -1.295400         1.807070         7.347128
H       -1.267480         0.280842         8.254292
C        0.705604         1.004555         7.722747
H        1.219182         1.967630         7.565844
H        1.227074         0.479484         8.530128
O        0.869879         0.177867         6.577342
C        0.562720         0.799600         5.344548
H        1.078650         1.769174         5.250167
H       -0.517427         0.989135         5.243222
C        1.043767        -0.142048         4.239985
H        2.128164        -0.265771         4.320679
H        0.581165        -1.131380         4.368285
O        0.781688         0.382643         2.945333
C       -0.509513         0.079550         2.429779
H       -1.298535         0.488713         3.081575
H       -0.653071        -1.010971         2.370893
C       -0.662363         0.696320         1.045699
H       -0.360145         1.751481         1.079692
H       -1.721960         0.664028         0.770491
O        0.000000         0.000000         0.000000
C        1.420590        -0.000000        -0.000000
H        1.690291        -0.554290        -0.905022
H        1.810619        -0.557646         0.862284
C        2.107387         1.369848         0.000000
H        3.182407         1.203139        -0.139330
H        1.983585         1.856208         0.972165
S        1.522671         2.619769        -1.215278
C        1.623271         1.703035        -2.811797
H        1.936044         2.440778        -3.556956
H        2.421053         0.956772        -2.746091
C        0.295514         1.054203        -3.211475
H       -0.484003         1.814448        -3.321631
H       -0.046792         0.366380        -2.434266
S        0.406196         0.047856        -4.750085
C        0.458274         1.344397        -6.058263
H        0.827294         0.821830        -6.946270
H        1.200929         2.106407        -5.804341
C       -0.902661         1.985447        -6.334069
H       -1.645429         1.223664        -6.588272
H       -1.271559         2.507636        -5.445840
S       -0.855036         3.280771        -7.640994
C       -0.720027         2.272547        -9.175848
H       -0.456625         3.003064        -9.948174
H        0.131761         1.589575        -9.086401
C       -1.993201         1.520975        -9.562115
H       -2.831362         2.212383        -9.692776
H       -1.841730         0.978565       -10.504003
H       -2.277461         0.786182        -8.801276
 

