%Mem=61440MB 
%NProc=8 

#P B3LYP/6-31G(d) Integral=Ultrafine SCF(Conver=8,XQC,MaxConventionalCycles=64,MaxCycle=128) NoSymm Test 
   Pop=mk IOp(6/33=2) GFInput GFPrint 

 MEP step - Input generated by PyRED DVE-DMDS-OPLS 

0 1 
C        2.427878        -5.466311        -5.977845
H        1.536914        -6.102036        -6.001945
H        2.576962        -5.038270        -6.975246
H        3.290435        -6.094918        -5.734625
C        2.267501        -4.362821        -4.945132
H        3.159909        -3.714903        -4.927430
H        1.407458        -3.723708        -5.201520
O        2.090659        -4.972330        -3.672492
C        1.994395        -4.066588        -2.588692
H        2.685166        -3.218196        -2.713560
H        2.295641        -4.613833        -1.689379
C        0.569099        -3.545825        -2.397962
H        0.225986        -2.998542        -3.291326
H       -0.114674        -4.396862        -2.248233
O        0.572890        -2.694422        -1.265911
C       -0.704929        -2.163292        -0.958424
H       -1.414877        -2.980907        -0.741328
H       -1.103141        -1.591326        -1.812465
C       -0.609027        -1.253719         0.258567
H       -0.085300        -1.781887         1.069972
H       -1.625738        -1.027797         0.599655
O        0.000000         0.000000         0.000000
C        1.422164        -0.000000        -0.000000
H        1.806913        -0.518156        -0.889797
H        1.801479        -0.530244         0.886575
C        1.917029         1.439925         0.000000
H        1.481444         1.990382        -0.841572
H        3.004161         1.439945        -0.134742
S        1.624393         2.386913         1.546315
C       -0.129409         2.909157         1.323537
H       -0.184533         3.500325         0.400173
H       -0.748889         2.019547         1.202719
C       -0.624739         3.770532         2.489339
H       -1.547626         4.269697         2.174030
H        0.091056         4.565087         2.729000
S       -1.105892         2.882611         4.027696
C        0.472957         2.788863         4.963337
H        1.256505         2.418916         4.294120
H        0.301252         2.010751         5.714166
C        0.924277         4.092773         5.631466
H        1.960212         3.984546         5.978563
H        0.919737         4.916785         4.910975
S       -0.096850         4.669292         7.043227
C        0.519855         3.554977         8.370975
H        0.332118         2.512460         8.090747
H        1.603504         3.688630         8.470706
C       -0.183361         3.879352         9.688778
H       -1.266158         3.739394         9.604434
H        0.183180         3.220461        10.484195
H        0.002897         4.914881         9.992597
 

