%Mem=61440MB 
%NProc=8 

#P B3LYP/6-31G(d) Integral=Ultrafine SCF(Conver=8,XQC,MaxConventionalCycles=64,MaxCycle=128) NoSymm Test 
   Pop=mk IOp(6/33=2) GFInput GFPrint 

 MEP step - Input generated by PyRED DVE-DMDS-OPLS 

0 1 
C        2.604610        -7.101958        -0.566165
H        2.342067        -6.689198         0.413151
H        2.245626        -8.135880        -0.616357
H        3.695677        -7.105681        -0.654562
C        1.984447        -6.268947        -1.676333
H        2.240426        -6.687084        -2.665453
H        0.885686        -6.285414        -1.592528
O        2.486597        -4.945997        -1.566618
C        2.077010        -4.068507        -2.596912
H        2.149685        -4.559857        -3.582297
H        2.783800        -3.232076        -2.581468
C        0.666241        -3.515005        -2.431391
H        0.404048        -2.934482        -3.333311
H       -0.070657        -4.331129        -2.344922
O        0.625436        -2.693861        -1.279891
C       -0.657668        -2.156679        -1.020857
H       -1.384018        -2.970230        -0.842756
H       -1.019307        -1.569963        -1.881958
C       -0.605111        -1.264109         0.212288
H       -0.100185        -1.804988         1.028011
H       -1.633463        -1.051602         0.526973
O        0.000000        -0.000000         0.000000
C        1.426817         0.000000         0.000000
H        1.818219        -0.548882        -0.862936
H        1.791117        -0.503702         0.912320
C        1.919366         1.439822        -0.000000
H        3.004147         1.439148         0.154768
H        1.475392         1.998390         0.830373
S        1.710161         2.379322        -1.563814
C       -0.109798         2.621654        -1.694287
H       -0.219972         3.257271        -2.579084
H       -0.583516         1.657578        -1.893642
C       -0.801759         3.260577        -0.492040
H       -0.773303         2.572020         0.356612
H       -1.854651         3.429647        -0.751115
S       -0.058819         4.885253        -0.038971
C       -1.437541         5.598640         0.943107
H       -2.369043         5.514200         0.371611
H       -1.205054         6.664600         1.031780
C       -1.589947         4.977183         2.331574
H       -1.785074         3.903467         2.251505
H       -0.668620         5.117764         2.906433
S       -2.985365         5.795990         3.216463
C       -2.807766         5.060380         4.892481
H       -1.782375         5.232220         5.239947
H       -3.465389         5.666976         5.524327
C       -3.183788         3.582423         4.994292
H       -2.529613         2.955571         4.379021
H       -3.090743         3.238446         6.032287
H       -4.215434         3.417290         4.668004
 

