%Mem=61440MB 
%NProc=8 

#P B3LYP/6-31G(d) Integral=Ultrafine SCF(Conver=8,XQC,MaxConventionalCycles=64,MaxCycle=128) NoSymm Test 
   Pop=mk IOp(6/33=2) GFInput GFPrint 

 MEP step - Input generated by PyRED DVE-DMDS-OPLS 

0 1 
C       -2.811279        -6.541257         1.619519
H       -3.310505        -5.632823         1.972095
H       -3.017470        -6.653984         0.550220
H       -3.239618        -7.399670         2.148359
C       -1.314459        -6.458393         1.868550
H       -1.103877        -6.354819         2.946281
H       -0.812586        -7.379974         1.527086
O       -0.800077        -5.339022         1.163494
C        0.598369        -5.174453         1.317609
H        1.135467        -6.041466         0.892045
H        0.867370        -5.103035         2.383972
C        1.048115        -3.907011         0.604053
H        2.143388        -3.907532         0.554917
H        0.665460        -3.914867        -0.427110
O        0.682016        -2.719417         1.290012
C       -0.609425        -2.193790         0.975169
H       -0.923019        -1.622782         1.856080
H       -1.327725        -3.007203         0.818471
C       -0.607291        -1.260359        -0.233977
H       -1.648235        -1.037952        -0.499639
H       -0.140140        -1.756334        -1.101684
O        0.000000        -0.000000         0.000000
C        1.421586        -0.000000        -0.000000
H        1.800700        -0.511824        -0.900471
H        1.821596        -0.525984         0.874220
C        1.856159         1.462656         0.000000
H        1.503977         1.949050         0.915978
H        1.408304         1.971349        -0.858843
S        3.691095         1.560055        -0.067251
C        3.950787         3.337976         0.324877
H        3.401128         3.593081         1.236722
H        5.018157         3.414245         0.553233
C        3.573718         4.280901        -0.818809
H        2.514328         4.169575        -1.070091
H        4.146640         4.044616        -1.721314
S        3.754672         6.072946        -0.436956
C        5.580852         6.325717        -0.534317
H        5.717749         7.326161        -0.954839
H        5.992356         5.616401        -1.258483
C        6.294592         6.236838         0.818149
H        5.837084         6.939188         1.520947
H        6.205372         5.239913         1.260873
S        8.082071         6.686589         0.743420
C        8.902094         5.047400         0.575959
H        9.957318         5.267095         0.771855
H        8.555554         4.403377         1.392394
C        8.750054         4.352237        -0.776265
H        9.349907         3.433419        -0.797411
H        7.710423         4.068932        -0.971987
H        9.084329         5.000572        -1.592262
 

