%chk=PET_uff_180_gaussian.chk
%nproc=4
%mem=4000Mb
#p 6-31g* mp2

Conformer number 180. Energy MM = 192.507 kcal/mol

0 1
C         -2.00420       -0.07230        2.38410
C         -3.85570        0.04650       -0.92060
H         -4.06100       -0.63070       -1.74030
C         -3.07910       -0.40870        0.14610
H         -2.70730       -1.42550        0.12010
C         -2.79700        0.43240        1.23700
C         -3.30180        1.74330        1.23230
H         -3.10390        2.41430        2.05900
C         -4.08230        2.19920        0.16380
H         -4.46550        3.21140        0.19250
C         -4.37140        1.35320       -0.92140
O         -5.46120        1.08090       -2.98370
C         -5.21940        1.82670       -2.04340
O         -5.74550        3.07840       -2.01170
O         -1.76970        0.72950        3.46080
O         -1.62700       -1.23660        2.38810
C         -6.58900        3.57990       -2.98230
H         -6.07420        3.58060       -3.96810
H         -7.50360        2.95000       -3.04720
C         -6.99020        5.00200       -2.62500
H         -6.08880        5.64780       -2.56630
H         -7.51300        5.01450       -1.64490
H         -7.67310        5.40440       -3.40270
C          2.62350       -4.64490       10.52380
C          3.36440       -2.59540        7.41230
H          4.21360       -2.39220        6.77190
C          3.53590       -3.43970        8.51470
H          4.51440       -3.86560        8.69870
C          2.45380       -3.73720        9.36260
C          1.20030       -3.16640        9.08960
H          0.34660       -3.37590        9.72200
C          1.02930       -2.32270        7.99010
H          0.04680       -1.90680        7.80420
C          2.10730       -2.03030        7.13690
O          2.81970       -0.93950        5.17670
C          1.89950       -1.16120        5.95250
O          0.66080       -0.66440        5.70950
O          1.56980       -4.93460       11.31850
O          3.71330       -5.14430       10.76390
C          0.25650       -0.09600        4.52040
H          0.86930        0.80010        4.27860
H          0.38880       -0.84850        3.71630
C         -1.21870        0.29440        4.65380
H         -1.29740        1.10730        5.40650
H         -1.81070       -0.57170        5.02550
H          1.65520       -5.53180       12.07510

