%chk=PET_uff_107_gaussian.chk
%nproc=4
%mem=4000Mb
#p 6-31g* mp2

Conformer number 107. Energy MM = 186.941 kcal/mol

0 1
C         -1.57820        0.09560        2.36710
C         -1.32410       -0.34620       -1.38870
H         -1.49370       -1.13500       -2.11070
C         -1.58580       -0.60340       -0.04110
H         -1.94620       -1.58470        0.24150
C         -1.36090        0.38590        0.93020
C         -0.88740        1.64530        0.52370
H         -0.70050        2.42720        1.24920
C         -0.63340        1.90560       -0.82600
H         -0.25910        2.88180       -1.10740
C         -0.83980        0.90860       -1.79550
O         -0.14490        2.26510       -3.58350
C         -0.53280        1.16140       -3.22350
O         -0.63810        0.14610       -4.11990
O         -1.24620        1.03000        3.29680
O         -1.98130       -1.00640        2.71650
C         -0.31640        0.25590       -5.45630
H         -0.97450        1.00780       -5.94410
H          0.74480        0.57110       -5.56360
C         -0.49730       -1.09480       -6.13160
H         -1.55220       -1.42940       -6.04020
H          0.16560       -1.84780       -5.65360
H         -0.23340       -1.01550       -7.20700
C          6.51740        3.11940        1.03990
C          4.83800        0.25470        2.88170
H          5.09010       -0.75150        3.19300
C          5.79350        1.00540        2.18970
H          6.75930        0.56010        1.98590
C          5.50490        2.31560        1.76850
C          4.23920        2.85610        2.04980
H          3.98560        3.86180        1.73860
C          3.28300        2.10440        2.73800
H          2.31700        2.55120        2.93860
C          3.57230        0.79680        3.16430
O          2.81010       -1.12110        4.29190
C          2.55100        0.00800        3.89690
O          1.31780        0.53800        4.09660
O          6.23150        4.38120        0.65080
O          7.61770        2.64800        0.79060
C          0.28010       -0.10330        4.74320
H          0.09820       -1.08950        4.26400
H          0.53590       -0.27030        5.81160
C         -0.98290        0.75610        4.62710
H         -0.80680        1.71800        5.15350
H         -1.85020        0.24930        5.10350
H          6.87930        4.92420        0.17950

