%chk=PET_uff_152_gaussian.chk
%nproc=4
%mem=4000Mb
#p 6-31g* mp2

Conformer number 152. Energy MM = 179.291 kcal/mol

0 1
C         -1.74730        0.12560        2.33140
C         -2.98330        0.05830       -1.25630
H         -3.32990       -0.68150       -1.96740
C         -2.60110       -0.36340        0.02060
H         -2.66190       -1.41760        0.26130
C         -2.14880        0.56570        0.97300
C         -2.08210        1.92390        0.61970
H         -1.73770        2.66440        1.33020
C         -2.46410        2.34550       -0.65700
H         -2.40480        3.40000       -0.89630
C         -2.92080        1.41800       -1.60800
O         -3.75490        1.06230       -3.77480
C         -3.33850        1.87230       -2.95720
O         -3.26730        3.19110       -3.27590
O         -1.31050        1.04610        3.23150
O         -1.82170       -1.05640        2.63940
C         -3.71430        3.72030       -4.46950
H         -3.18490        3.24040       -5.32150
H         -4.80770        3.54300       -4.56970
C         -3.44520        5.21670       -4.49540
H         -2.35380        5.40690       -4.41460
H         -3.96530        5.71290       -3.64870
H         -3.81630        5.64740       -5.44930
C          4.10910       -0.75640       11.45920
C          3.81950       -1.48980        7.74710
H          4.38300       -2.02370        6.99240
C          4.29880       -1.47360        9.05960
H          5.22060       -1.99590        9.28490
C          3.59970       -0.78650       10.06630
C          2.40730       -0.12140        9.73440
H          1.84550        0.41640       10.48780
C          1.92710       -0.13890        8.42260
H          1.00770        0.38730        8.19830
C          2.62910       -0.82070        7.41440
O          2.75060       -1.39160        5.13910
C          2.12310       -0.81890        6.02060
O          0.97080       -0.16340        5.72550
O          3.43560       -0.08080       12.41470
O          5.14600       -1.33700       11.75010
C          0.48290       -0.00080        4.44620
H          1.21820        0.57700        3.84370
H          0.32830       -0.99490        3.97530
C         -0.83660        0.77050        4.50110
H         -0.65370        1.73820        5.01510
H         -1.59820        0.20650        5.08310
H          3.75560       -0.04150       13.32720

