%chk=PET_uff_151_gaussian.chk
%nproc=4
%mem=4000Mb
#p 6-31g* mp2

Conformer number 151. Energy MM = 187.793 kcal/mol

0 1
C         -1.65580        0.29590        2.27820
C         -3.57870        0.24280       -0.98800
H         -3.71530       -0.43760       -1.81950
C         -2.72540       -0.13270        0.05150
H         -2.22830       -1.09320       -0.00490
C         -2.52790        0.71490        1.15520
C         -3.19490        1.95050        1.19220
H         -3.06640        2.62320        2.03100
C         -4.04990        2.32630        0.15140
H         -4.55770        3.28080        0.21230
C         -4.25470        1.47330       -0.94760
O         -5.77550        2.91990       -2.00360
C         -5.17820        1.85220       -2.04460
O         -5.37000        0.99910       -3.08420
O         -1.49450        1.11080        3.35620
O         -1.11880       -0.80410        2.25390
C         -6.24730        1.22990       -4.12360
H         -7.28280        1.32100       -3.72800
H         -5.97120        2.16870       -4.65130
C         -6.18740        0.06860       -5.10370
H         -6.46560       -0.87710       -4.59140
H         -5.15990       -0.02900       -5.51420
H         -6.89490        0.24680       -5.94060
C         -0.22190       -3.85630       12.03950
C         -2.68130       -2.85620        9.33090
H         -3.72150       -3.04110        9.09280
C         -2.14380       -3.43940       10.48100
H         -2.78300       -4.05740       11.09920
C         -0.79720       -3.23050       10.82400
C         -0.00180       -2.42150        9.99370
H          1.03940       -2.24190       10.23060
C         -0.54060       -1.83680        8.84330
H          0.09810       -1.22230        8.22080
C         -1.88530       -2.05030        8.49900
O         -3.62190       -1.66820        6.97140
C         -2.45530       -1.44700        7.27080
O         -1.68110       -0.66870        6.46780
O          1.07640       -3.65840       12.35640
O         -0.91580       -4.55910       12.76000
C         -2.11330       -0.19990        5.24440
H         -2.34060       -1.06870        4.58890
H         -3.03890        0.40380        5.37520
C         -1.04460        0.67730        4.59050
H         -0.08430        0.12640        4.47950
H         -0.86700        1.56120        5.23930
H          1.47170       -4.06280       13.14120

