%chk=PET_uff_011_gaussian.chk
%nproc=4
%mem=4000Mb
#p 6-31g* mp2

Conformer number 011. Energy MM = 185.590 kcal/mol

0 1
C         -1.73460        0.00920        2.53030
C         -3.81300       -0.07300       -0.64130
H         -4.07970       -0.80340       -1.39500
C         -2.96780       -0.46290        0.39910
H         -2.60800       -1.48430        0.41840
C         -2.60280        0.44740        1.40690
C         -3.09590        1.76200        1.34350
H         -2.83540        2.48570        2.10560
C         -3.94580        2.15250        0.30010
H         -4.31800        3.16930        0.28230
C         -4.31700        1.23700       -0.70040
O         -5.54940        0.82540       -2.65650
C         -5.23700        1.63810       -1.79570
O         -5.74690        2.89730       -1.83070
O         -1.38920        0.88220        3.51710
O         -1.35520       -1.15390        2.57870
C         -6.64930        3.32890       -2.78310
H         -6.20150        3.23710       -3.79710
H         -7.57290        2.71130       -2.73370
C         -7.01010        4.78350       -2.52660
H         -6.10010        5.41700       -2.58410
H         -7.46780        4.89030       -1.52030
H         -7.73840        5.12750       -3.29160
C          1.87740        8.80780        4.98260
C          3.01480        5.20510        5.33150
H          3.93340        4.67810        5.55790
C          3.03210        6.60190        5.30410
H          3.96310        7.11580        5.50930
C          1.86180        7.32390        5.01500
C          0.67410        6.61910        4.75620
H         -0.24390        7.14700        4.53070
C          0.65640        5.22110        4.78560
H         -0.27460        4.70630        4.58210
C          1.82650        4.49930        5.07200
O          2.83990        2.40110        5.33880
C          1.80770        3.01610        5.10350
O          0.64470        2.34250        4.89220
O          0.74750        9.49300        4.69920
O          2.91060        9.42000        5.20970
C          0.55710        0.96500        4.93090
H          1.19490        0.51850        4.13640
H          0.91130        0.60440        5.92230
C         -0.88500        0.50450        4.75240
H         -1.52160        0.94310        5.55010
H         -0.90890       -0.60010        4.88190
H          0.73780       10.46030        4.67040

