%chk=PET_uff_105_gaussian.chk
%nproc=4
%mem=4000Mb
#p 6-31g* mp2

Conformer number 105. Energy MM = 189.023 kcal/mol

0 1
C         -1.46340        0.14150        2.07550
C         -1.74380       -0.05460       -1.70020
H         -2.20450       -0.70730       -2.43130
C         -1.90020       -0.34940       -0.34420
H         -2.47690       -1.22250       -0.06500
C         -1.31310        0.46800        0.63740
C         -0.57110        1.59000        0.23360
H         -0.10640        2.23820        0.96600
C         -0.41460        1.88530       -1.12410
H          0.16670        2.75480       -1.40420
C         -0.99680        1.06450       -2.10530
O         -1.32430        0.65020       -4.39400
C         -0.81700        1.37200       -3.54510
O         -0.07710        2.44850       -3.91660
O         -0.87740        0.92900        3.01920
O         -2.11100       -0.84230        2.40980
C          0.18030        2.79020       -5.22870
H          0.72630        1.96250       -5.73220
H         -0.77530        2.97960       -5.76490
C          1.03420        4.04750       -5.26750
H          1.99530        3.87080       -4.73940
H          0.49720        4.88650       -4.77620
H          1.24720        4.32300       -6.32180
C         -0.08920       -2.48680       12.27850
C          0.92100       -0.14210        9.46560
H          1.42510        0.81050        9.36000
C          0.75050       -0.67830       10.74640
H          1.12760       -0.12580       11.59790
C          0.09910       -1.91230       10.92370
C         -0.37560       -2.59820        9.79450
H         -0.88130       -3.55030        9.89640
C         -0.20500       -2.06350        8.51610
H         -0.58470       -2.61870        7.66740
C          0.44370       -0.82990        8.33670
O          1.17370        0.80050        6.80660
C          0.61160       -0.27370        6.97220
O          0.14320       -0.97960        5.91040
O         -0.72110       -3.67050       12.43240
O          0.32380       -1.89240       13.26410
C          0.14570       -0.57330        4.59070
H          1.17740       -0.31540        4.26530
H         -0.19670       -1.43590        3.98430
C         -0.80680        0.61140        4.36400
H         -0.42850        1.49600        4.91630
H         -1.82410        0.37560        4.74740
H         -0.85740       -4.06220       13.30670

