%chk=PET_uff_170_gaussian.chk
%nproc=4
%mem=4000Mb
#p 6-31g* mp2

Conformer number 170. Energy MM = 200.148 kcal/mol

0 1
C         -1.75030        0.17220        2.49390
C         -3.84160       -0.03940       -0.66090
H         -4.11230       -0.79620       -1.38680
C         -2.98730       -0.38930        0.38670
H         -2.62280       -1.40770        0.44180
C         -2.61990        0.55950        1.35740
C         -3.11690        1.86840        1.25140
H         -2.85510        2.62010        1.98560
C         -3.97520        2.21800        0.20410
H         -4.35140        3.23210        0.15570
C         -4.35090        1.26630       -0.75980
O         -5.60420        0.79890       -2.69070
C         -5.28250        1.63300       -1.85420
O         -5.79540        2.88910       -1.90860
O         -1.39680        1.09290        3.43260
O         -1.37810       -0.98920        2.60150
C         -6.70750        3.30830       -2.85500
H         -6.27150        3.20480       -3.87260
H         -7.63100        2.69190       -2.78680
C         -7.06250        4.76550       -2.60650
H         -6.15080        5.39570       -2.67800
H         -7.50690        4.88110       -1.59490
H         -7.79830        5.10660       -3.36470
C          2.82960       -2.18230       11.73430
C          1.20070       -0.49310        8.75680
H          0.19580       -0.25340        8.43120
C          1.36900       -1.13400        9.98560
H          0.49100       -1.37080       10.57320
C          2.65290       -1.47560       10.44250
C          3.76560       -1.14640        9.64780
H          4.76830       -1.40020        9.97110
C          3.59840       -0.49630        8.42030
H          4.47340       -0.26530        7.82560
C          2.31190       -0.16930        7.95910
O          3.06800        0.81740        5.95850
C          2.11020        0.47820        6.64030
O          0.84710        0.59990        6.16300
O          4.06430       -2.54320       12.14790
O          1.86030       -2.45750       12.42530
C          0.50190        1.03660        4.90190
H          0.73650        2.11680        4.78210
H          1.06210        0.44840        4.14190
C         -0.98430        0.76630        4.71250
H         -1.57910        1.35130        5.44580
H         -1.16650       -0.31140        4.92610
H          4.19810       -3.02170       12.97910

