%chk=PET_uff_046_gaussian.chk
%nproc=4
%mem=4000Mb
#p 6-31g* mp2

Conformer number 046. Energy MM = 178.882 kcal/mol

0 1
C         -1.51730        0.12760        2.26260
C         -1.70800       -0.24480       -1.51360
H         -2.10660       -0.95210       -2.23010
C         -1.87970       -0.49770       -0.14820
H         -2.40570       -1.39430        0.15570
C         -1.36850        0.39360        0.81120
C         -0.68960        1.54430        0.37640
H         -0.28240        2.25060        1.08900
C         -0.51810        1.79640       -0.98550
H          0.01540        2.69000       -1.28450
C         -1.02110        0.90410       -1.94580
O         -1.24990        0.39700       -4.22920
C         -0.81560        1.17460       -3.38960
O         -0.12740        2.28190       -3.77110
O         -0.97800        1.00260        3.15120
O         -2.08840       -0.88320        2.64940
C          0.16320        2.60310       -5.08060
H          0.77820        1.79710       -5.53770
H         -0.77850        2.72110       -5.65990
C          0.94320        3.90840       -5.11940
H          1.88960        3.80330       -4.54700
H          0.33800        4.72620       -4.67350
H          1.18520        4.17050       -6.17080
C          2.31960        0.49710       12.63830
C          3.31930        0.70900        8.98500
H          4.23610        0.77050        8.41170
C          3.40170        0.64260       10.37790
H          4.37950        0.65430       10.84320
C          2.23570        0.56410       11.15900
C          0.98640        0.55160       10.51550
H          0.07000        0.49210       11.08920
C          0.90390        0.61740        9.12140
H         -0.07360        0.60740        8.65540
C          2.06940        0.69780        8.34150
O          3.00480        0.85650        6.19610
C          1.98130        0.77450        6.86330
O          0.76680        0.76200        6.25250
O          1.19260        0.42620       13.38020
O          3.40710        0.50770       13.19700
C          0.60800        0.88360        4.88730
H          1.02760        1.85820        4.55200
H          1.14630        0.05810        4.37040
C         -0.86780        0.82230        4.51650
H         -1.41730        1.63860        5.03180
H         -1.29100       -0.15210        4.84640
H          1.22590        0.38430       14.34650

