%chk=PET_uff_114_gaussian.chk
%nproc=4
%mem=4000Mb
#p 6-31g* mp2

Conformer number 114. Energy MM = 192.019 kcal/mol

0 1
C         -1.61590        0.23270        2.47750
C         -4.35290        2.07540        0.60200
H         -5.01620        2.91330        0.77750
C         -3.42910        1.72650        1.59320
H         -3.40440        2.30250        2.50990
C         -2.56490        0.63360        1.40980
C         -2.63310       -0.09230        0.20820
H         -1.97960       -0.93840        0.03520
C         -3.54920        0.26110       -0.78470
H         -3.57750       -0.32220       -1.69660
C         -4.42450        1.34290       -0.59660
O         -6.20010        2.61150       -1.47100
C         -5.41460        1.68920       -1.64630
O         -5.45190        0.96560       -2.79530
O         -1.48600        0.99570        3.59520
O         -0.95810       -0.79140        2.35260
C         -6.37580        1.15270       -3.80250
H         -7.39980        0.96270       -3.41230
H         -6.31560        2.19470       -4.18560
C         -6.08480        0.18560       -4.93990
H         -6.14150       -0.86180       -4.57420
H         -5.06810        0.37390       -5.34610
H         -6.82880        0.32510       -5.75220
C          5.59640       -2.06190       -0.29950
C          4.81520        0.07970        2.73730
H          5.36460        0.65740        3.47010
C          5.52510       -0.58690        1.73450
H          6.60480       -0.50690        1.71830
C          4.84830       -1.35070        0.76670
C          3.44740       -1.43150        0.82420
H          2.89640       -2.01090        0.09380
C          2.73800       -0.76790        1.82820
H          1.66040       -0.85320        1.84470
C          3.41230       -0.00370        2.79560
O          3.23930        1.38050        4.68760
C          2.65110        0.69150        3.86330
O          1.30520        0.52750        3.94420
O          4.93340       -2.79000       -1.22370
O          6.81630       -1.99550       -0.34760
C          0.51040        1.08260        4.92710
H          0.88920        0.76680        5.92470
H          0.53210        2.19250        4.86490
C         -0.91700        0.56590        4.78130
H         -1.53890        0.94220        5.62070
H         -0.90870       -0.54540        4.84870
H          5.40180       -3.26240       -1.92710

