%chk=PET_uff_176_gaussian.chk
%nproc=4
%mem=4000Mb
#p 6-31g* mp2

Conformer number 176. Energy MM = 189.959 kcal/mol

0 1
C         -1.66020        0.14230        2.30300
C         -2.75680        2.44390       -0.51410
H         -3.00240        3.49050       -0.64750
C         -2.37830        1.99290        0.75730
H         -2.34150        2.70070        1.57630
C         -2.06180        0.64000        0.96520
C         -2.12470       -0.24930       -0.12060
H         -1.88210       -1.29690        0.00530
C         -2.48730        0.20200       -1.38770
H         -2.51650       -0.51150       -2.20140
C         -2.81000        1.55130       -1.60010
O         -3.52880        3.16760       -3.15000
C         -3.19490        2.00620       -2.95780
O         -3.15240        1.12160       -3.98680
O         -1.43130        1.01260        3.32430
O         -1.52610       -1.06200        2.47560
C         -3.50910        1.40880       -5.28730
H         -4.58640        1.67920       -5.33050
H         -2.89900        2.25560       -5.67020
C         -3.25580        0.18430       -6.15380
H         -3.85210       -0.67660       -5.78330
H         -2.17740       -0.08360       -6.12240
H         -3.54230        0.39850       -7.20440
C          3.03830       -2.99350       11.37490
C          3.31030       -2.45070        7.62910
H          3.95060       -2.77870        6.81940
C          3.57250       -2.91030        8.92240
H          4.41010       -3.57900        9.07820
C          2.76230       -2.51110        9.99960
C          1.68280       -1.64600        9.75430
H          1.04040       -1.31980       10.56240
C          1.41640       -1.19190        8.45970
H          0.57560       -0.52780        8.30260
C          2.22800       -1.58760        7.38420
O          2.68130       -1.41360        5.08810
C          1.93700       -1.10970        6.01180
O          0.81180       -0.38490        5.77470
O          2.25990       -2.59290       12.40380
O          3.97140       -3.75460       11.58730
C          0.43030        0.04070        4.51890
H          1.15380        0.79090        4.13120
H          0.43290       -0.83580        3.84000
C         -0.97990        0.64130        4.58180
H         -0.95880        1.53840        5.23660
H         -1.68800       -0.09430        5.02370
H          2.42490       -2.89280       13.30890

