%chk=PET_uff_031_gaussian.chk
%nproc=4
%mem=4000Mb
#p 6-31g* mp2

Conformer number 031. Energy MM = 177.990 kcal/mol

0 1
C         -1.69390        0.12740        2.45890
C         -2.73210        0.00380       -1.19080
H         -2.99980       -0.75280       -1.91800
C         -2.39860       -0.39860        0.10540
H         -2.41780       -1.45480        0.34430
C         -2.04760        0.55090        1.08040
C         -2.03560        1.91180        0.72860
H         -1.76810        2.66840        1.45570
C         -2.36630        2.31440       -0.56960
H         -2.34570        3.37030       -0.80950
C         -2.71930        1.36470       -1.54370
O         -3.38560        0.95640       -3.75830
C         -3.07030        1.79260       -2.92150
O         -3.03630        3.11010       -3.25260
O         -1.41210        1.06870        3.39850
O         -1.67600       -1.06100        2.75030
C         -3.34100        3.59330       -4.50960
H         -2.65160        3.14960       -5.26120
H         -4.38870        3.32840       -4.77190
C         -3.18830        5.10600       -4.52900
H         -2.14310        5.38640       -4.27850
H         -3.87730        5.56860       -3.79070
H         -3.43180        5.49370       -5.54100
C          5.54930        4.42620        0.33630
C          4.77870        1.72000        2.88660
H          5.32500        0.97530        3.45210
C          5.48430        2.56290        2.02180
H          6.55810        2.44780        1.94200
C          4.80940        3.53750        1.26580
C          3.41620        3.65600        1.39820
H          2.86670        4.39620        0.82990
C          2.71190        2.81670        2.26420
H          1.63760        2.93160        2.33860
C          3.38410        1.83740        3.01510
O          3.19200        0.05010        4.53190
C          2.62050        0.93880        3.91440
O          1.27930        1.10590        4.03510
O          4.88400        5.34490       -0.39810
O          6.76280        4.32810        0.22200
C          0.43720        0.24410        4.70660
H          0.46000       -0.75280        4.21650
H          0.76580        0.13090        5.76280
C         -0.98140        0.81600        4.68910
H         -0.96810        1.78060        5.24020
H         -1.68840        0.13300        5.20820
H          5.34570        5.92800       -1.01780

