%chk=PET_uff_130_gaussian.chk
%nproc=4
%mem=4000Mb
#p 6-31g* mp2

Conformer number 130. Energy MM = 194.684 kcal/mol

0 1
C         -1.62210        0.06210        2.35500
C         -3.00080        0.09900       -1.17670
H         -3.40470       -0.62080       -1.87800
C         -2.58880       -0.34870        0.07950
H         -2.68620       -1.40210        0.31120
C         -2.05750        0.54950        1.02230
C         -1.94700        1.90700        0.67880
H         -1.54170        2.62270        1.38320
C         -2.36220        2.35650       -0.58060
H         -2.26680        3.40880       -0.81720
C         -2.89380        1.45640       -1.52150
O         -3.79770        1.13260       -3.66430
C         -3.33880        1.92940       -2.85630
O         -3.24340        3.24590       -3.17600
O         -1.06820        0.91740        3.25930
O         -1.73950       -1.12690        2.62650
C         -3.65400        3.77140       -4.38480
H         -3.08700        3.29660       -5.21550
H         -4.74080        3.58230       -4.52770
C         -3.40360        5.27070       -4.40270
H         -2.32000        5.47710       -4.27230
H         -3.96980        5.76070       -3.58220
H         -3.73710        5.69410       -5.37350
C         -5.17680        6.43460        9.08400
C         -5.30430        2.86710        7.79540
H         -5.97010        2.01660        7.86920
C         -5.65970        4.05600        8.43860
H         -6.59020        4.09230        8.99070
C         -4.81540        5.17860        8.38060
C         -3.61630        5.09040        7.65400
H         -2.94450        5.93690        7.59180
C         -3.26380        3.90250        7.00560
H         -2.32740        3.86310        6.46310
C         -4.10090        2.77600        7.07450
O         -4.38470        0.49840        6.57700
C         -3.69970        1.50210        6.42680
O         -2.54840        1.44000        5.70750
O         -4.34390        7.49750        9.04750
O         -6.22210        6.51140        9.71260
C         -1.88150        0.26220        5.43450
H         -1.51810       -0.16210        6.39590
H         -2.55850       -0.47850        4.95810
C         -0.67480        0.54040        4.53340
H         -0.03110       -0.36440        4.46480
H         -0.06770        1.35110        4.98960
H         -4.55370        8.32010        9.51300

