%chk=PET_uff_000_gaussian.chk
%nproc=4
%mem=4000Mb
#p 6-31g* mp2

Conformer number 000. Energy MM = 309.511 kcal/mol

0 1
C         -1.57900        0.07800        2.46790
C          0.94970        0.69890       -0.27610
H          1.84830        1.28700       -0.38370
C          0.26800        0.77430        0.93870
H          0.67840        1.39790        1.72340
C         -0.91080        0.04030        1.14530
C         -1.41170       -0.74770        0.09780
H         -2.32050       -1.32270        0.22550
C         -0.73390       -0.81550       -1.12360
H         -1.14110       -1.44350       -1.90650
C          0.47150       -0.11330       -1.32080
O          0.59110       -0.67980       -3.59040
C          1.19620       -0.24010       -2.62510
O          2.50590        0.09220       -2.80310
O         -1.05770        0.86200        3.44240
O         -2.54310       -0.63910        2.69810
C          3.52100       -0.01470       -1.86750
H          3.92470        0.99610       -1.64540
H          3.17230       -0.49430       -0.92820
C          4.63650       -0.88560       -2.42530
H          5.04030       -0.44070       -3.35880
H          4.24880       -1.90380       -2.64290
H          5.45610       -0.96680       -1.67980
C          5.00940        5.29220        6.99490
C          1.60390        3.64560        6.81070
H          0.62830        3.91760        6.43930
C          2.63440        4.57720        6.67030
H          2.41820        5.52120        6.18580
C          3.92140        4.29640        7.15150
C          4.15410        3.06370        7.78530
H          5.13670        2.81780        8.16860
C          3.11960        2.13300        7.93310
H          3.33410        1.19220        8.42470
C          1.83060        2.40580        7.43780
O          0.87830        0.48980        8.40530
C          0.73360        1.39920        7.60300
O         -0.42890        1.44680        6.89400
O          4.76390        6.47600        6.39240
O          6.13370        5.04980        7.41210
C         -0.50130        1.75710        5.54720
H         -1.05850        2.70640        5.39830
H          0.52020        1.85950        5.11560
C         -1.21150        0.64180        4.79360
H         -2.28510        0.60910        5.08190
H         -0.73300       -0.33090        5.04370
H          5.45850        7.14190        6.28210

