%chk=PET_uff_037_gaussian.chk
%nproc=4
%mem=4000Mb
#p 6-31g* mp2

Conformer number 037. Energy MM = 179.641 kcal/mol

0 1
C         -1.53830        0.15960        2.37650
C         -1.61170       -0.29710       -1.39310
H         -1.94440       -1.04340       -2.10390
C         -1.80160       -0.53370       -0.02760
H         -2.27580       -1.45670        0.28260
C         -1.37440        0.40780        0.92400
C         -0.76110        1.59190        0.48210
H         -0.41750        2.33680        1.18910
C         -0.56850        1.82630       -0.88010
H         -0.08420        2.74590       -1.18500
C         -0.98770        0.88400       -1.83270
O         -1.12740        0.31810       -4.10880
C         -0.75690        1.13570       -3.27680
O         -0.11270        2.26670       -3.66430
O         -1.10800        1.09960        3.25720
O         -2.02090       -0.89270        2.77260
C          0.20100        2.56990       -4.97250
H          0.86040        1.77970       -5.39430
H         -0.72880        2.63650       -5.58030
C          0.93020        3.90440       -5.02200
H          1.86430        3.84860       -4.42230
H          0.28250        4.70730       -4.61170
H          1.19140        4.15090       -6.07230
C          5.77510       -3.59720        1.46590
C          4.89700       -0.46600        3.42410
H          5.42240        0.36820        3.87220
C          5.63640       -1.44660        2.75640
H          6.71330       -1.34430        2.70710
C          4.99270       -2.54760        2.16480
C          3.59340       -2.64200        2.24890
H          3.06800       -3.47750        1.80340
C          2.85350       -1.65910        2.91300
H          1.77650       -1.76290        2.96240
C          3.49730       -0.56270        3.51150
O          3.27550        1.40090        4.78400
C          2.70810        0.46980        4.22800
O          1.35360        0.38190        4.25170
O          5.14770       -4.66020        0.91690
O          6.99240       -3.51190        1.38880
C          0.52750        1.24410        4.94520
H          0.70380        1.13970        6.03770
H          0.73590        2.29410        4.64080
C         -0.92460        0.92250        4.61490
H         -1.59150        1.61850        5.16590
H         -1.15550       -0.11760        4.93680
H          5.64050       -5.35990        0.46490

