%chk=PET_uff_143_gaussian.chk
%nproc=4
%mem=4000Mb
#p 6-31g* mp2

Conformer number 143. Energy MM = 193.790 kcal/mol

0 1
C         -1.69390       -0.09360        2.48000
C         -3.80020       -0.08730       -0.67120
H         -4.06930       -0.79850       -1.44280
C         -2.94900       -0.50390        0.35230
H         -2.58850       -1.52470        0.34090
C         -2.57760        0.37850        1.38160
C         -3.07320        1.69440        1.35820
H         -2.80670        2.39790        2.13690
C         -3.92840        2.11260        0.32840
H         -4.30110        3.13000        0.33770
C         -4.30380        1.22340       -0.69540
O         -5.53720        0.85270       -2.65800
C         -5.22420        1.64850       -1.78140
O         -5.73030        2.90930       -1.79680
O         -1.35950        0.73890        3.50470
O         -1.29250       -1.24970        2.47110
C         -6.62520        3.35670       -2.75000
H         -6.17150        3.27580       -3.76210
H         -7.55080        2.74080       -2.71460
C         -6.98520        4.80890       -2.48080
H         -6.07370        5.44130       -2.52650
H         -7.44990        4.90650       -1.47700
H         -7.70740        5.16170       -3.24770
C         -1.30470        8.67580        5.43730
C         -0.33390        5.64170        3.37110
H         -0.20690        5.39400        2.32440
C         -0.70810        6.94410        3.71670
H         -0.86080        7.66920        2.92700
C         -0.89020        7.30140        5.06450
C         -0.68030        6.33230        6.05880
H         -0.81200        6.57530        7.10610
C         -0.30190        5.03320        5.71430
H         -0.15350        4.30850        6.50540
C         -0.12970        4.67220        4.36700
O          0.34350        2.94900        2.83990
C          0.24610        3.28300        4.01340
O          0.48740        2.38830        5.00560
O         -1.50050        8.99750        6.73410
O         -1.48330        9.52330        4.57330
C          0.63280        1.02480        4.84380
H          1.32570        0.79080        4.00600
H          1.08340        0.62400        5.77660
C         -0.72320        0.33690        4.67000
H         -1.37290        0.58680        5.53600
H         -0.55620       -0.76180        4.68870
H         -1.78330        9.88500        6.99820

