%chk=PET_uff_020_gaussian.chk
%nproc=4
%mem=4000Mb
#p 6-31g* mp2

Conformer number 020. Energy MM = 205.315 kcal/mol

0 1
C         -1.70370        0.11750        2.60380
C         -4.57740       -0.57350        0.22740
H         -4.84270       -1.32040       -0.51050
C         -3.33930       -0.67030        0.86930
H         -2.68060       -1.49080        0.61290
C         -2.97140        0.26520        1.85200
C         -3.85340        1.31360        2.15930
H         -3.59970        2.04960        2.91190
C         -5.08930        1.41040        1.51820
H         -5.75390        2.22010        1.79260
C         -5.47100        0.46100        0.55590
O         -7.15170       -0.28970       -0.90520
C         -6.80790        0.54510       -0.07860
O         -7.65980        1.53470        0.29320
O         -1.41800        0.98390        3.60910
O         -0.96340       -0.83080        2.38060
C         -8.94630        1.67480       -0.18340
H         -8.92870        1.80240       -1.28640
H         -9.54430        0.77210        0.07470
C         -9.58570        2.89730        0.45580
H         -8.99650        3.80550        0.20700
H         -9.61810        2.77740        1.55990
H        -10.62130        3.02260        0.07570
C          5.71870       -1.96040       -0.28500
C          4.82420        0.55590        2.40990
H          5.31580        1.35350        2.95270
C          5.55140       -0.15630        1.45200
H          6.58660        0.11010        1.27920
C          4.94940       -1.20060        0.72850
C          3.60340       -1.51510        0.98300
H          3.11150       -2.31520        0.44280
C          2.87600       -0.80200        1.93700
H          1.84190       -1.07150        2.11020
C          3.47760        0.24200        2.66280
O          3.23700        1.86600        4.34270
C          2.70130        0.98800        3.67880
O          1.39540        0.68070        3.87650
O          5.13040       -2.96670       -0.96910
O          6.88850       -1.68500       -0.50920
C          0.60710        1.23020        4.86450
H          1.04280        0.98290        5.85780
H          0.55030        2.33500        4.75370
C         -0.78460        0.62450        4.78460
H         -1.40040        0.99390        5.63140
H         -0.70630       -0.48190        4.88500
H          5.61350       -3.47750       -1.63280

