%chk=PET_00048_gaussian.chk
%nproc=4
%mem=4000Mb
#p 6-31g* mp2

Conformer number 00048. Energy MM = 73.202 kcal/mol

0 1
C  1.0220    -0.2599    1.0252
C  4.6628    -1.2360    1.2281
H  5.2537    -2.0193    1.7012
C  3.2752    -1.2235    1.4043
H  2.8082    -1.9976    2.0118
C  2.4940    -0.2262    0.8054
C  3.1173    0.7591    0.0272
H  2.5369    1.5455    -0.4501
C  4.5066    0.7463    -0.1493
H  4.9645    1.5227    -0.7584
C  5.2873    -0.2517    0.4504
O  7.4646    -1.1682    0.8145
C  6.7670    -0.3115    0.2956
O  7.2064    0.7039    -0.4885
O  0.4163    0.7663    0.3777
O  0.4594    -1.1092    1.6968
C  8.6251    0.7177    -0.6898
H  9.1345    0.8224    0.2747
H  8.9390    -0.2134    -1.1748
C  8.9644    1.8980    -1.5789
H  10.0411    1.9517    -1.7625
H  8.6370    2.8353    -1.1169
H  8.4451    1.8186    -2.5398
C  -9.5630    -0.0003    -0.4172
C  -6.2307    -1.0850    -1.8039
H  -5.8683    -1.7034    -2.6239
C  -7.6084    -0.9278    -1.6215
H  -8.2991    -1.4247    -2.3009
C  -8.0942    -0.1383    -0.5722
C  -7.1920    0.4924    0.2938
H  -7.5508    1.1081    1.1158
C  -5.8129    0.3353    0.1110
H  -5.1341    0.8335    0.7993
C  -5.3246    -0.4538    -0.9401
O  -3.4245    -1.3659    -2.0670
C  -3.8691    -0.6553    -1.1800
O  -3.1336    0.0582    -0.2918
O  -9.9061    0.7782    0.6239
O  -10.4059    -0.5144    -1.1283
C  -1.7167    -0.1022    -0.4432
H  -1.4131    0.1438    -1.4682
H  -1.4418    -1.1444    -0.2450
C  -1.0090    0.8315    0.5323
H  -1.3106    1.8664    0.3336
H  -1.3080    0.6309    1.5689
H  -10.8864    0.7768    0.6047


