%chk=PET_00042_gaussian.chk
%nproc=4
%mem=4000Mb
#p 6-31g* mp2

Conformer number 00042. Energy MM = 74.176 kcal/mol

0 1
C  1.0289    -0.1156    0.6671
C  4.4161    -0.9490    -0.8658
H  4.8212    -1.5322    -1.6918
C  3.0321    -0.9242    -0.6585
H  2.3921    -1.4917    -1.3302
C  2.4918    -0.1802    0.3986
C  3.3514    0.5356    1.2438
H  2.9468    1.1177    2.0710
C  4.7353    0.5106    1.0364
H  5.3760    1.0763    1.7092
C  5.2759    -0.2328    -0.0210
O  7.2236    -0.9312    -1.2132
C  6.7390    -0.2958    -0.2905
O  7.4230    0.4422    0.6180
O  0.3421    -0.8447    -0.2455
O  0.5423    0.5235    1.5846
C  8.8500    0.4570    0.4632
H  9.2267    -0.5212    0.1430
H  9.2766    0.6583    1.4513
C  9.2595    1.5533    -0.5023
H  10.3485    1.6125    -0.5827
H  8.8445    1.3740    -1.4991
H  8.8765    2.5230    -0.1676
C  -9.5405    -0.4782    -1.0581
C  -5.7827    -0.0508    -1.4474
H  -5.0576    0.0380    -2.2531
C  -7.1359    -0.2017    -1.7732
H  -7.4291    -0.2274    -2.8205
C  -8.0963    -0.3168    -0.7602
C  -7.6948    -0.2795    0.5805
H  -8.4314    -0.3669    1.3777
C  -6.3431    -0.1287    0.9060
H  -6.0465    -0.1004    1.9537
C  -5.3787    -0.0141    -0.1052
O  -3.5852    0.1893    1.4591
C  -3.9542    0.1437    0.2977
O  -3.1535    0.2140    -0.7933
O  -9.8013    -0.4984    -2.3769
O  -10.4301    -0.5852    -0.2350
C  -1.7527    0.4043    -0.5294
H  -1.2961    0.7385    -1.4680
H  -1.6054    1.2224    0.1855
C  -1.0840    -0.8890    -0.0653
H  -1.4529    -1.7296    -0.6639
H  -1.3311    -1.1287    0.9756
H  -10.7747    -0.6075    -2.4217


