%chk=PET_00014_gaussian.chk
%nproc=4
%mem=4000Mb
#p 6-31g* mp2

Conformer number 00014. Energy MM = 73.502 kcal/mol

0 1
C  1.0592    0.7638    -0.0766
C  4.7627    0.6300    -0.8058
H  5.4250    0.9860    -1.5917
C  3.3922    0.8951    -0.9076
H  3.0193    1.4494    -1.7680
C  2.5060    0.4529    0.0847
C  3.0059    -0.2587    1.1832
H  2.3445    -0.6149    1.9697
C  4.3764    -0.5234    1.2850
H  4.7501    -1.0779    2.1450
C  5.2629    -0.0817    0.2926
O  7.1621    -1.0009    1.4110
C  6.7103    -0.3918    0.4546
O  7.4220    0.0962    -0.5911
O  0.3398    0.2499    0.9515
O  0.6062    1.3925    -1.0192
C  8.8366    -0.1444    -0.5498
H  9.1919    -0.1397    -1.5854
H  9.0610    -1.1346    -0.1369
C  9.5308    0.9544    0.2328
H  9.2973    1.9358    -0.1929
H  10.6152    0.8132    0.2209
H  9.1917    0.9699    1.2734
C  -9.5944    0.0369    -0.4888
C  -6.2986    -1.6326    -1.2329
H  -5.9515    -2.5142    -1.7701
C  -7.6679    -1.3511    -1.1908
H  -8.3675    -2.0164    -1.6944
C  -8.1339    -0.2219    -0.5068
C  -7.2203    0.6242    0.1344
H  -7.5635    1.5071    0.6693
C  -5.8496    0.3423    0.0924
H  -5.1614    1.0169    0.5963
C  -5.3812    -0.7887    -0.5911
O  -3.5051    -2.0975    -1.2836
C  -3.9353    -1.1355    -0.6680
O  -3.1913    -0.2476    0.0370
O  -9.9183    1.1474    0.1964
O  -10.4464    -0.6505    -1.0199
C  -1.7808    -0.5023    -0.0060
H  -1.4216    -0.4106    -1.0374
H  -1.5679    -1.5205    0.3423
C  -1.0722    0.5009    0.8971
H  -1.4581    0.4109    1.9190
H  -1.2824    1.5339    0.5921
H  -10.8951    1.1915    0.1234


