%chk=PET_00025_gaussian.chk
%nproc=4
%mem=4000Mb
#p 6-31g* mp2

Conformer number 00025. Energy MM = 73.502 kcal/mol

0 1
C  1.0531    0.8913    -0.1062
C  4.7694    0.7527    -0.7656
H  5.4374    1.0345    -1.5764
C  3.3961    0.9783    -0.9143
H  3.0269    1.4292    -1.8346
C  2.5025    0.6281    0.1076
C  2.9977    0.0488    1.2832
H  2.3305    -0.2337    2.0943
C  4.3710    -0.1765    1.4318
H  4.7409    -0.6280    2.3516
C  5.2650    0.1734    0.4099
O  7.1616    -0.5910    1.6434
C  6.7149    -0.0899    0.6240
O  7.4343    0.2986    -0.4575
O  0.3268    0.4769    0.9613
O  0.6037    1.4061    -1.1172
C  8.8526    0.0948    -0.3697
H  9.3227    0.8306    -1.0303
H  9.2217    0.2898    0.6438
C  9.2086    -1.3060    -0.8308
H  10.2923    -1.4528    -0.8242
H  8.8340    -1.4839    -1.8442
H  8.7497    -2.0609    -0.1847
C  -9.5778    -0.0855    -0.5847
C  -6.2409    -1.7600    -1.0990
H  -5.8694    -2.6872    -1.5331
C  -7.6156    -1.5027    -1.1063
H  -8.2950    -2.2319    -1.5449
C  -8.1128    -0.3158    -0.5545
C  -7.2249    0.6121    0.0043
H  -7.5925    1.5405    0.4362
C  -5.8488    0.3544    0.0119
H  -5.1810    1.0927    0.4496
C  -5.3493    -0.8341    -0.5392
O  -3.4390    -2.1725    -1.0607
C  -3.8963    -1.1586    -0.5583
O  -3.1797    -0.1855    0.0571
O  -9.9326    1.0856    -0.0277
O  -10.4087    -0.8426    -1.0503
C  -1.7644    -0.4156    0.0612
H  -1.3906    -0.4282    -0.9689
H  -1.5386    -1.3860    0.5202
C  -1.0884    0.6927    0.8606
H  -1.4888    0.7055    1.8809
H  -1.3124    1.6826    0.4433
H  -10.9087    1.1024    -0.1185


