%chk=PET_00018_gaussian.chk
%nproc=4
%mem=4000Mb
#p 6-31g* mp2

Conformer number 00018. Energy MM = 72.979 kcal/mol

0 1
C  1.0841    0.6713    -0.4914
C  4.4754    -1.0235    -0.8681
H  4.9071    -1.8936    -1.3613
C  3.1066    -0.7662    -1.0065
H  2.5048    -1.4449    -1.6065
C  2.5328    0.3478    -0.3797
C  3.3434    1.1987    0.3847
H  2.9125    2.0689    0.8785
C  4.7121    0.9412    0.5231
H  5.3150    1.6194    1.1229
C  5.2861    -0.1728    -0.1034
O  7.2535    -1.4587    -0.5347
C  6.7352    -0.4960    0.0081
O  7.3705    0.4175    0.7828
O  0.4413    -0.2560    -1.2435
O  0.5679    1.6423    0.0375
C  8.7741    0.1775    0.9425
H  9.2667    0.1991    -0.0361
H  8.9311    -0.7990    1.4142
C  9.3426    1.2706    1.8263
H  8.8447    1.2756    2.8016
H  10.4164    1.1306    1.9783
H  9.1741    2.2553    1.3779
C  -9.5570    0.0444    -0.7738
C  -5.7957    0.0760    -1.0407
H  -5.0561    0.4601    -1.7394
C  -7.1524    0.2805    -1.3161
H  -7.4411    0.8156    -2.2196
C  -8.1328    -0.1975    -0.4371
C  -7.7478    -0.8821    0.7216
H  -8.4928    -1.2607    1.4180
C  -6.3914    -1.0866    0.9969
H  -6.1058    -1.6201    1.9026
C  -5.4076    -0.6102    0.1183
O  -3.6220    -1.4323    1.4774
C  -3.9802    -0.8570    0.4623
O  -3.1627    -0.3644    -0.5009
O  -10.4021    -0.4562    0.1439
O  -9.9653    0.6268    -1.7611
C  -1.7660    -0.5451    -0.2314
H  -1.5445    -1.6078    -0.0730
H  -1.4928    0.0014    0.6785
C  -0.9649    -0.0322    -1.4227
H  -1.2672    -0.5716    -2.3277
H  -1.1780    1.0253    -1.6244
H  -11.2902    -0.2258    -0.2016


