%chk=PET_00024_gaussian.chk
%nproc=4
%mem=4000Mb
#p 6-31g* mp2

Conformer number 00024. Energy MM = 74.177 kcal/mol

0 1
C  1.0364    0.5316    0.1737
C  4.4100    -0.8510    -0.9326
H  4.8141    -1.5131    -1.6975
C  3.0319    -0.6100    -0.8933
H  2.3952    -1.0915    -1.6319
C  2.4932    0.2390    0.0824
C  3.3486    0.8428    1.0148
H  2.9453    1.5067    1.7786
C  4.7267    0.6018    0.9753
H  5.3643    1.0853    1.7120
C  5.2656    -0.2479    0.0003
O  7.2063    -1.2800    -0.9330
C  6.7227    -0.5411    -0.0903
O  7.4033    0.1226    0.8762
O  0.3524    -0.1394    -0.7844
O  0.5514    1.2707    1.0138
C  8.8240    -0.0819    0.8919
H  9.1609    0.0940    1.9188
H  9.0807    -1.1177    0.6417
C  9.5037    0.9005    -0.0433
H  10.5910    0.7933    0.0051
H  9.2378    1.9294    0.2208
H  9.1827    0.7443    -1.0780
C  -9.5547    -0.6805    -0.9118
C  -5.8259    -1.2946    -0.4958
H  -5.1254    -2.1204    -0.5975
C  -7.1808    -1.5244    -0.7627
H  -7.5000    -2.5194    -1.0653
C  -8.1100    -0.4836    -0.6394
C  -7.6754    0.7882    -0.2470
H  -8.3875    1.6058    -0.1465
C  -6.3218    1.0177    0.0197
H  -5.9994    2.0123    0.3250
C  -5.3887    -0.0215    -0.1035
O  -3.5635    1.3762    0.5451
C  -3.9607    0.2786    0.1919
O  -3.1915    -0.8206    0.0008
O  -9.8488    -1.9402    -1.2781
O  -10.4184    0.1724    -0.8276
C  -1.7920    -0.6625    0.2912
H  -1.3721    -1.6704    0.3849
H  -1.6553    -0.1868    1.2695
C  -1.0661    0.0947    -0.8201
H  -1.4204    -0.2553    -1.7963
H  -1.2775    1.1701    -0.7905
H  -10.8186    -1.9223    -1.4218


