%chk=PET_00012_gaussian.chk
%nproc=4
%mem=4000Mb
#p 6-31g* mp2

Conformer number 00012. Energy MM = 73.051 kcal/mol

0 1
C  1.1091    0.7950    -0.3747
C  4.8814    0.9727    -0.4466
H  5.6319    1.6244    -0.8885
C  3.5285    1.2583    -0.6633
H  3.2564    2.1227    -1.2677
C  2.5313    0.4422    -0.1108
C  2.9021    -0.6664    0.6616
H  2.1525    -1.3204    1.1009
C  4.2550    -0.9517    0.8784
H  4.5277    -1.8175    1.4807
C  5.2523    -0.1351    0.3268
O  7.0162    -1.4425    1.2698
C  6.6746    -0.4869    0.5914
O  7.5062    0.3925    -0.0195
O  0.2757    -0.0728    0.2504
O  0.7677    1.7455    -1.0600
C  8.8987    0.1229    0.1847
H  9.1450    -0.8693    -0.2097
H  9.1302    0.1635    1.2550
C  9.6974    1.1800    -0.5525
H  9.4460    2.1799    -0.1838
H  10.7713    1.0164    -0.4263
H  9.4606    1.1661    -1.6216
C  -9.5979    0.0802    -0.6503
C  -6.1531    -1.2068    -1.4750
H  -5.6848    -1.7872    -2.2688
C  -7.5225    -0.9318    -1.5445
H  -8.1012    -1.3011    -2.3898
C  -8.1434    -0.1868    -0.5346
C  -7.3844    0.2810    0.5456
H  -7.8493    0.8615    1.3396
C  -6.0136    0.0056    0.6153
H  -5.4475    0.3806    1.4650
C  -5.3903    -0.7401    -0.3952
O  -3.3754    -1.7111    -1.2385
C  -3.9369    -1.0615    -0.3715
O  -3.3457    -0.5310    0.7277
O  -10.0778    0.8044    0.3758
O  -10.3210    -0.2933    -1.5547
C  -1.9400    -0.7922    0.8534
H  -1.7030    -1.8327    0.5977
H  -1.6827    -0.6831    1.9133
C  -1.1163    0.1873    0.0250
H  -1.3439    0.0744    -1.0411
H  -1.3636    1.2141    0.3218
H  -11.0312    0.9021    0.1685


