%chk=PET_00045_gaussian.chk
%nproc=4
%mem=4000Mb
#p 6-31g* mp2

Conformer number 00045. Energy MM = 73.571 kcal/mol

0 1
C  1.1378    0.4852    -1.1575
C  4.9004    0.5318    -1.4602
H  5.6364    0.8003    -2.2168
C  3.5388    0.6642    -1.7518
H  3.2366    1.0331    -2.7311
C  2.5729    0.3254    -0.7947
C  2.9854    -0.1499    0.4578
H  2.2586    -0.4243    1.2190
C  4.3488    -0.2828    0.7495
H  4.6409    -0.6545    1.7292
C  5.3143    0.0577    -0.2081
O  7.6294    0.2372    -0.7690
C  6.7759    -0.0634    0.0500
O  7.0004    -0.5409    1.2992
O  0.3400    0.1632    -0.1092
O  0.7580    0.8627    -2.2541
C  8.3787    -0.7054    1.6654
H  8.9774    -1.0585    0.8178
H  8.4146    -1.4864    2.4319
C  8.9272    0.5908    2.2316
H  9.9595    0.4607    2.5687
H  8.3191    0.9286    3.0772
H  8.9021    1.3885    1.4826
C  -9.5535    0.0218    -0.4998
C  -6.1430    -1.6511    -0.5786
H  -5.7013    -2.5946    -0.8966
C  -7.5171    -1.4481    -0.7462
H  -8.1191    -2.2372    -1.1914
C  -8.1022    -0.2416    -0.3439
C  -7.3034    0.7581    0.2262
H  -7.7485    1.7004    0.5424
C  -5.9290    0.5551    0.3938
H  -5.3334    1.3486    0.8392
C  -5.3410    -0.6521    -0.0083
O  -3.3556    -1.9704    -0.1888
C  -3.8854    -0.9232    0.1454
O  -3.2530    0.1444    0.6924
O  -10.2129    -1.0068    -1.0602
O  -10.1304    1.0416    -0.1713
C  -1.8409    -0.0163    0.8919
H  -1.5398    0.6932    1.6713
H  -1.6048    -1.0109    1.2911
C  -1.0626    0.2706    -0.3873
H  -1.3037    1.2802    -0.7420
H  -1.3376    -0.4434    -1.1720
H  -11.1423    -0.6977    -1.1019


