%chk=PET_00036_gaussian.chk
%nproc=4
%mem=4000Mb
#p 6-31g* mp2

Conformer number 00036. Energy MM = 72.593 kcal/mol

0 1
C  1.0165    0.9464    0.3178
C  4.4218    -0.7586    0.1396
H  4.8231    -1.7697    0.1394
C  3.0349    -0.5840    0.2258
H  2.3998    -1.4650    0.2901
C  2.4828    0.7045    0.2291
C  3.3329    1.8154    0.1457
H  2.9220    2.8240    0.1476
C  4.7180    1.6407    0.0596
H  5.3631    2.5160    -0.0042
C  5.2715    0.3532    0.0558
O  7.5058    1.1820    -0.1077
C  6.7522    0.2245    -0.0372
O  7.1179    -1.0811    -0.0279
O  0.3415    -0.2269    0.3848
O  0.5147    2.0587    0.3197
C  8.5282    -1.3345    -0.1152
H  9.0205    -0.6230    -0.7881
H  8.6473    -2.3295    -0.5563
C  9.1497    -1.3121    1.2686
H  8.6476    -2.0284    1.9271
H  10.2132    -1.5623    1.2201
H  9.0434    -0.3257    1.7311
C  -9.5499    -0.1548    -0.3438
C  -6.1443    -1.8298    -0.5239
H  -5.7261    -2.8355    -0.5295
C  -7.5312    -1.6659    -0.4395
H  -8.1666    -2.5469    -0.3809
C  -8.0866    -0.3808    -0.4316
C  -7.2454    0.7367    -0.5087
H  -7.6669    1.7409    -0.5035
C  -5.8582    0.5728    -0.5931
H  -5.2292    1.4583    -0.6523
C  -5.2999    -0.7129    -0.6010
O  -3.3254    -2.0572    -0.6930
C  -3.8323    -0.9470    -0.6881
O  -3.1625    0.2295    -0.7502
O  -10.2511    -1.2997    -0.2746
O  -10.1030    0.9290    -0.3321
C  -1.7346    0.1226    -0.8633
H  -1.3769    1.0620    -1.2979
H  -1.4522    -0.6599    -1.5789
C  -1.0859    -0.1130    0.4987
H  -1.3642    0.6723    1.2128
H  -1.4474    -1.0498    0.9356
H  -11.1839    -1.0024    -0.2221


