%chk=PET_00006_gaussian.chk
%nproc=4
%mem=4000Mb
#p 6-31g* mp2

Conformer number 00006. Energy MM = 73.202 kcal/mol

0 1
C  1.0386    1.0320    -0.0196
C  4.5533    -0.3434    -0.5577
H  5.0505    -1.0721    -1.1942
C  3.1747    -0.1467    -0.7069
H  2.6416    -0.7288    -1.4553
C  2.5019    0.7840    0.0968
C  3.2228    1.5151    1.0504
H  2.7167    2.2421    1.6842
C  4.5997    1.3187    1.1992
H  5.1434    1.8959    1.9459
C  5.2737    0.3886    0.3965
O  7.3854    0.8509    1.4164
C  6.7395    0.2190    0.5958
O  7.2311    -0.7189    -0.2512
O  0.4934    0.2456    -0.9806
O  0.4334    1.8355    0.6710
C  8.6404    -0.9447    -0.1222
H  9.1842    -0.0166    -0.3312
H  8.8688    -1.2866    0.8935
C  9.0415    -2.0100    -1.1237
H  8.4898    -2.9381    -0.9409
H  8.7995    -1.6914    -2.1430
H  10.1134    -2.2184    -1.0636
C  -9.5343    -0.2487    -0.8941
C  -5.7557    0.1565    -1.0082
H  -5.0214    0.7484    -1.5496
C  -7.1130    0.3370    -1.2997
H  -7.4002    1.0611    -2.0592
C  -8.0853    -0.4062    -0.6185
C  -7.6914    -1.3304    0.3567
H  -8.4373    -1.9136    0.8945
C  -6.3355    -1.5105    0.6481
H  -6.0449    -2.2322    1.4103
C  -5.3593    -0.7695    -0.0329
O  -3.5674    -1.7763    1.1868
C  -3.9308    -1.0010    0.3171
O  -3.1179    -0.2456    -0.4623
O  -9.7870    0.6667    -1.8459
O  -10.4340    -0.8578    -0.3466
C  -1.7222    -0.3953    -0.1692
H  -1.5211    -0.0445    0.8494
H  -1.4310    -1.4510    -0.2324
C  -0.9178    0.4131    -1.1809
H  -1.2006    1.4733    -1.1639
H  -1.1461    0.0635    -2.1944
H  -10.7648    0.6650    -1.9192


