%chk=PET_00049_gaussian.chk
%nproc=4
%mem=4000Mb
#p 6-31g* mp2

Conformer number 00049. Energy MM = 72.202 kcal/mol

0 1
C  -0.1873    -2.1083    1.2518
C  2.7723    -0.9262    -0.8289
H  3.3728    -1.2726    -1.6688
C  1.7281    -1.7293    -0.3571
H  1.5308    -2.6792    -0.8494
C  0.9414    -1.2998    0.7192
C  1.2023    -0.0555    1.3092
H  0.5918    0.2955    2.1398
C  2.2468    0.7475    0.8376
H  2.4270    1.7076    1.3159
C  3.0392    0.3151    -0.2345
O  4.8764    0.7612    -1.6976
C  4.1627    1.1275    -0.7774
O  4.2679    2.3035    -0.1104
O  -0.1390    -3.3714    0.7633
O  -1.0235    -1.6640    2.0225
C  5.3269    3.1492    -0.5753
H  6.2881    2.6361    -0.4591
H  5.1656    3.3981    -1.6302
C  5.3191    4.4166    0.2570
H  6.1133    5.0975    -0.0614
H  4.3560    4.9301    0.1681
H  5.4579    4.1820    1.3175
C  -5.6419    2.7973    -0.4579
C  -4.2203    -0.6216    0.4009
H  -4.2612    -1.3361    1.2204
C  -4.9460    0.5706    0.5043
H  -5.5444    0.7499    1.3948
C  -4.8914    1.5197    -0.5242
C  -4.1031    1.2707    -1.6548
H  -4.0484    2.0031    -2.4585
C  -3.3772    0.0801    -1.7576
H  -2.7642    -0.0985    -2.6397
C  -3.4375    -0.8750    -0.7337
O  -1.7570    -2.2528    -1.7183
C  -2.6379    -2.1194    -0.8839
O  -3.0325    -3.0484    0.0207
O  -6.3671    2.9189    0.6676
O  -5.6365    3.6713    -1.3047
C  -2.2854    -4.2776    0.0403
H  -3.0041    -5.0745    0.2575
H  -1.8407    -4.4924    -0.9379
C  -1.2216    -4.2423    1.1361
H  -1.6543    -3.9532    2.1004
H  -0.7896    -5.2413    1.2551
H  -6.7999    3.7936    0.5751


