%chk=PET_00009_gaussian.chk
%nproc=4
%mem=4000Mb
#p 6-31g* mp2

Conformer number 00009. Energy MM = 73.638 kcal/mol

0 1
C  1.0426    0.5383    0.0491
C  4.3975    -0.8630    -1.0904
H  4.7884    -1.5407    -1.8483
C  3.0199    -0.6230    -1.0305
H  2.3703    -1.1211    -1.7466
C  2.4980    0.2458    -0.0631
C  3.3695    0.8704    0.8402
H  2.9793    1.5497    1.5973
C  4.7470    0.6305    0.7802
H  5.3976    1.1301    1.4945
C  5.2690    -0.2389    -0.1867
O  7.1965    -1.2892    -1.1307
C  6.7245    -0.5320    -0.2977
O  7.4230    0.1518    0.6418
O  0.3420    -0.1544    -0.8811
O  0.5721    1.2949    0.8818
C  8.8373    -0.0747    0.6029
H  9.0463    -1.1376    0.7682
H  9.2345    0.2332    -0.3709
C  9.4782    0.7503    1.7017
H  9.2600    1.8142    1.5620
H  9.0751    0.4685    2.6801
H  10.5627    0.6104    1.7127
C  -9.5473    -0.7843    -0.8140
C  -5.8293    -1.3007    -0.4546
H  -5.1318    -2.1279    -0.5645
C  -7.1896    -1.5309    -0.6889
H  -7.5229    -2.5271    -0.9759
C  -8.1170    -0.4895    -0.5547
C  -7.6752    0.7860    -0.1838
H  -8.3785    1.6084    -0.0732
C  -6.3152    1.0161    0.0503
H  -5.9854    2.0133    0.3393
C  -5.3844    -0.0242    -0.0838
O  -3.5460    1.3816    0.5066
C  -3.9504    0.2793    0.1771
O  -3.1855    -0.8228    -0.0144
O  -10.3388    0.2901    -0.6526
O  -10.0029    -1.8646    -1.1401
C  -1.7802    -0.6613    0.2443
H  -1.3590    -1.6678    0.3463
H  -1.6226    -0.1692    1.2112
C  -1.0773    0.0761    -0.8947
H  -1.4492    -0.2933    -1.8571
H  -1.2911    1.1513    -0.8817
H  -11.2380    -0.0460    -0.8519


