%chk=PET_00026_gaussian.chk
%nproc=4
%mem=4000Mb
#p 6-31g* mp2

Conformer number 00026. Energy MM = 74.266 kcal/mol

0 1
C  1.1093    -0.5935    -0.7236
C  4.3748    0.8434    0.6212
H  4.7095    1.7212    1.1697
C  3.0124    0.7130    0.3241
H  2.3290    1.4940    0.6499
C  2.5460    -0.4045    -0.3819
C  3.4573    -1.3885    -0.7881
H  3.1132    -2.2628    -1.3392
C  4.8180    -1.2582    -0.4911
H  5.5112    -2.0333    -0.8154
C  5.2856    -0.1420    0.2154
O  7.5498    -0.9012    0.1585
C  6.7437    -0.0529    0.5047
O  7.0244    1.0842    1.1881
O  0.3636    0.4274    -0.2354
O  0.6871    -1.5516    -1.3488
C  8.4051    1.2829    1.5273
H  8.4269    1.9201    2.4174
H  8.8899    0.3374    1.7964
C  9.1291    1.9741    0.3873
H  8.6332    2.9164    0.1321
H  9.1213    1.3555    -0.5157
H  10.1678    2.1837    0.6579
C  -9.5430    0.2986    -0.0520
C  -6.2219    -0.7824    -1.5478
H  -5.8429    -1.2171    -2.4719
C  -7.5933    -0.5373    -1.4187
H  -8.2560    -0.7854    -2.2449
C  -8.0981    0.0196    -0.2378
C  -7.2222    0.3283    0.8110
H  -7.6048    0.7608    1.7343
C  -5.8505    0.0831    0.6819
H  -5.1939    0.3309    1.5127
C  -5.3425    -0.4737    -0.5000
O  -3.4347    -1.2450    -1.7122
C  -3.8935    -0.7553    -0.6939
O  -3.1833    -0.3829    0.3984
O  -10.2816    -0.0412    -1.1225
O  -10.0517    0.7818    0.9423
C  -1.7699    -0.6424    0.3435
H  -1.5824    -1.6734    0.0209
H  -1.3955    -0.5754    1.3713
C  -1.0419    0.3740    -0.5354
H  -1.4437    1.3764    -0.3491
H  -1.1981    0.1801    -1.6031
H  -11.1974    0.1931    -0.8626


