%chk=PET_00000_gaussian.chk
%nproc=4
%mem=4000Mb
#p 6-31g* mp2

Conformer number 00000. Energy MM = 73.571 kcal/mol

0 1
C  1.1548    -1.1680    -0.6449
C  4.9218    -1.3271    -0.8330
H  5.6699    -1.9198    -1.3577
C  3.5650    -1.5928    -1.0455
H  3.2786    -2.3878    -1.7326
C  2.5839    -0.8438    -0.3820
C  2.9763    0.1765    0.4955
H  2.2374    0.7769    1.0212
C  4.3348    0.4426    0.7079
H  4.6112    1.2407    1.3934
C  5.3156    -0.3083    0.0450
O  7.6393    -0.7117    -0.3346
C  6.7729    -0.0673    0.2342
O  6.9774    0.9500    1.1073
O  0.3403    -0.3886    0.1088
O  0.7926    -2.0277    -1.4318
C  8.3497    1.2774    1.3727
H  8.3827    1.7332    2.3677
H  8.9746    0.3777    1.4099
C  8.8599    2.2663    0.3414
H  8.2258    3.1587    0.3180
H  9.8862    2.5682    0.5681
H  8.8369    1.8330    -0.6635
C  -9.5454    -0.5217    -0.4481
C  -6.1326    0.9328    -1.2688
H  -5.6849    1.6115    -1.9936
C  -7.5040    0.6645    -1.3389
H  -8.0979    1.1394    -2.1167
C  -8.0966    -0.2055    -0.4161
C  -7.3082    -0.8040    0.5752
H  -7.7592    -1.4826    1.2978
C  -5.9365    -0.5358    0.6453
H  -5.3489    -1.0144    1.4253
C  -5.3409    0.3351    -0.2776
O  -3.3517    1.4196    -1.0386
C  -3.8878    0.6570    -0.2511
O  -3.2653    -0.0133    0.7500
O  -10.1946    0.1077    -1.4427
O  -10.1285    -1.2633    0.3205
C  -1.8566    0.2333    0.8689
H  -1.5689    -0.0135    1.8973
H  -1.6262    1.2992    0.7458
C  -1.0577    -0.6261    -0.1045
H  -1.2939    -1.6839    0.0647
H  -1.3192    -0.3776    -1.1394
H  -11.1236    -0.1901    -1.3448


