%chk=PET_00010_gaussian.chk
%nproc=4
%mem=4000Mb
#p 6-31g* mp2

Conformer number 00010. Energy MM = 73.059 kcal/mol

0 1
C  1.0334    0.5185    0.5826
C  4.4048    -1.2473    0.7577
H  4.8056    -2.2254    1.0209
C  3.0255    -1.0259    0.8442
H  2.3847    -1.8403    1.1742
C  2.4910    0.2253    0.5097
C  3.3513    1.2492    0.0890
H  2.9514    2.2275    -0.1748
C  4.7305    1.0276    0.0024
H  5.3724    1.8414    -0.3276
C  5.2653    -0.2235    0.3367
O  7.2076    -1.5978    0.5578
C  6.7233    -0.5164    0.2643
O  7.4087    0.5716    -0.1652
O  0.3423    -0.5772    0.9834
O  0.5500    1.6046    0.3074
C  8.8243    0.3725    -0.2646
H  9.0352    -0.4336    -0.9763
H  9.2312    0.1132    0.7192
C  9.4498    1.6642    -0.7535
H  10.5346    1.5620    -0.8459
H  9.2292    2.4848    -0.0627
H  9.0368    1.9481    -1.7271
C  -9.5961    -0.0673    -0.3491
C  -6.2583    -0.6919    -1.9836
H  -5.8898    -0.9673    -2.9708
C  -7.6351    -0.5554    -1.7798
H  -8.3193    -0.7266    -2.6095
C  -8.1286    -0.2006    -0.5185
C  -7.2346    0.0174    0.5375
H  -7.5993    0.2954    1.5240
C  -5.8564    -0.1195    0.3336
H  -5.1839    0.0580    1.1697
C  -5.3605    -0.4759    -0.9286
O  -3.4523    -0.9135    -2.2994
C  -3.9054    -0.6346    -1.2011
O  -3.1817    -0.4344    -0.0719
O  -9.9469    0.2772    0.9023
O  -10.4321    -0.2408    -1.2160
C  -1.7645    -0.5492    -0.2578
H  -1.4202    0.2266    -0.9510
H  -1.5156    -1.5277    -0.6867
C  -1.0774    -0.3993    1.0949
H  -1.3234    0.5609    1.5659
H  -1.4485    -1.1684    1.7820
H  -10.9254    0.3288    0.8658


