%chk=PET_00023_gaussian.chk
%nproc=4
%mem=4000Mb
#p 6-31g* mp2

Conformer number 00023. Energy MM = 73.638 kcal/mol

0 1
C  1.0359    0.4811    0.2234
C  4.7456    0.4069    0.9292
H  5.3965    0.6809    1.7565
C  3.3658    0.5974    1.0653
H  2.9742    1.0146    1.9923
C  2.4938    0.2570    0.0215
C  3.0175    -0.2765    -1.1635
H  2.3675    -0.5484    -1.9920
C  4.3974    -0.4671    -1.2994
H  4.7897    -0.8825    -2.2268
C  5.2694    -0.1273    -0.2554
O  7.2011    -0.8201    -1.4795
C  6.7274    -0.3523    -0.4563
O  7.4260    0.0312    0.6405
O  0.3354    0.0863    -0.8672
O  0.5638    0.9484    1.2461
C  8.8427    -0.1523    0.5284
H  9.0667    -1.2129    0.3683
H  9.2267    0.4377    -0.3114
C  9.4834    0.3174    1.8198
H  9.0932    -0.2490    2.6719
H  9.2503    1.3713    2.0046
H  10.5697    0.1970    1.7829
C  -9.5440    -0.6831    -0.9386
C  -5.8165    -1.2274    -0.7686
H  -5.1096    -1.9739    -1.1234
C  -7.1759    -1.3978    -1.0536
H  -7.4992    -2.2684    -1.6225
C  -8.1152    -0.4575    -0.6108
C  -7.6861    0.6563    0.1206
H  -8.3988    1.3980    0.4747
C  -6.3270    0.8267    0.4055
H  -6.0072    1.6976    0.9764
C  -5.3843    -0.1125    -0.0371
O  -3.5586    1.0812    0.9354
C  -3.9519    0.1210    0.2948
O  -3.1750    -0.8626    -0.2201
O  -10.3476    0.2825    -0.4603
O  -9.9889    -1.6241    -1.5691
C  -1.7694    -0.7643    0.0674
H  -1.6089    -0.5800    1.1362
H  -1.3345    -1.7492    -0.1370
C  -1.0868    0.2891    -0.8040
H  -1.4631    0.2173    -1.8308
H  -1.3141    1.3084    -0.4703
H  -11.2443    0.0076    -0.7459


