%chk=PET_00044_gaussian.chk
%nproc=4
%mem=4000Mb
#p 6-31g* mp2

Conformer number 00044. Energy MM = 72.147 kcal/mol

0 1
C  1.0815    0.6339    -0.9898
C  4.3973    -0.0026    0.7805
H  4.7477    -0.2603    1.7777
C  3.0208    0.1398    0.5656
H  2.3424    -0.0111    1.4026
C  2.5339    0.4713    -0.7065
C  3.4387    0.6587    -1.7601
H  3.0787    0.9171    -2.7550
C  4.8135    0.5163    -1.5452
H  5.5017    0.6659    -2.3760
C  5.3016    0.1848    -0.2741
O  7.5768    0.2035    -1.0061
C  6.7738    0.0456    -0.1004
O  7.0752    -0.2746    1.1823
O  0.3484    0.4129    0.1286
O  0.6360    0.9193    -2.0894
C  8.4774    -0.4275    1.4349
H  8.8809    -1.2301    0.8073
H  8.9975    0.5114    1.2145
C  8.6577    -0.7818    2.8981
H  8.2395    0.0018    3.5386
H  9.7162    -0.9095    3.1411
H  8.1251    -1.7077    3.1389
C  -9.5259    -0.1647    -0.6069
C  -5.8020    -0.2651    -1.1924
H  -5.1292    -0.1082    -2.0327
C  -7.1794    -0.1271    -1.3975
H  -7.5500    0.1335    -2.3879
C  -8.0756    -0.3224    -0.3388
C  -7.5853    -0.6574    0.9290
H  -8.2640    -0.8137    1.7645
C  -6.2082    -0.7954    1.1342
H  -5.8409    -1.0568    2.1257
C  -5.3087    -0.6003    0.0762
O  -3.4039    -1.0472    1.4496
C  -3.8546    -0.7595    0.3525
O  -3.1266    -0.5330    -0.7680
O  -10.2836    -0.3760    0.4831
O  -10.0239    0.1236    -1.6790
C  -1.7057    -0.6851    -0.6231
H  -1.4618    -1.5766    -0.0317
H  -1.3007    -0.8750    -1.6227
C  -1.0716    0.5675    -0.0228
H  -1.4802    0.7604    0.9747
H  -1.3113    1.4582    -0.6171
H  -11.2004    -0.2406    0.1632


