%chk=PET_00007_gaussian.chk
%nproc=4
%mem=4000Mb
#p 6-31g* mp2

Conformer number 00007. Energy MM = 72.527 kcal/mol

0 1
C  1.0310    0.6769    0.3266
C  4.7617    1.2147    0.0845
H  5.4335    2.0684    0.0292
C  3.3837    1.4455    0.1673
H  3.0147    2.4703    0.1746
C  2.4855    0.3716    0.2409
C  2.9807    -0.9390    0.2309
H  2.3097    -1.7934    0.2873
C  4.3587    -1.1695    0.1480
H  4.7283    -2.1942    0.1416
C  5.2574    -0.0958    0.0742
O  7.1595    -1.5370    -0.0174
C  6.7122    -0.4014    -0.0117
O  7.4362    0.7431    -0.0767
O  0.3043    -0.4654    0.3860
O  0.5796    1.8107    0.3325
C  8.8594    0.5770    -0.1649
H  9.2548    1.4680    -0.6635
H  9.1226    -0.2847    -0.7892
C  9.4590    0.4610    1.2238
H  10.5492    0.3933    1.1711
H  9.1877    1.3292    1.8334
H  9.0785    -0.4241    1.7433
C  -9.5714    0.0907    -0.3529
C  -6.2531    -1.7512    -0.5312
H  -5.8853    -2.7764    -0.5372
C  -7.6302    -1.5187    -0.4479
H  -8.3085    -2.3671    -0.3904
C  -8.1211    -0.2076    -0.4396
C  -7.2254    0.8667    -0.5151
H  -7.5964    1.8906    -0.5096
C  -5.8479    0.6343    -0.5984
H  -5.1756    1.4874    -0.6564
C  -5.3541    -0.6776    -0.6068
O  -3.4489    -2.1182    -0.6982
C  -3.8999    -0.9843    -0.6929
O  -3.1724    0.1576    -0.7534
O  -10.3286    -1.0179    -0.2851
O  -10.0699    1.2007    -0.3408
C  -1.7514    -0.0200    -0.8650
H  -1.5073    -0.8148    -1.5811
H  -1.3471    0.9009    -1.2980
C  -1.1168    -0.2890    0.4975
H  -1.3616    0.5053    1.2138
H  -1.5205    -1.2104    0.9302
H  -11.2456    -0.6748    -0.2332


