%chk=PET_00041_gaussian.chk
%nproc=4
%mem=4000Mb
#p 6-31g* mp2

Conformer number 00041. Energy MM = 73.494 kcal/mol

0 1
C  1.0786    0.9418    0.0711
C  4.3014    -1.0439    0.5047
H  4.6129    -2.0702    0.6953
C  2.9364    -0.7470    0.4182
H  2.2168    -1.5528    0.5428
C  2.5157    0.5667    0.1729
C  3.4756    1.5762    0.0138
H  3.1646    2.6022    -0.1794
C  4.8405    1.2792    0.1001
H  5.5609    2.0839    -0.0280
C  5.2614    -0.0343    0.3468
O  7.0805    -1.5475    0.6692
C  6.6989    -0.4092    0.4492
O  7.4889    0.6766    0.2622
O  0.2852    -0.1387    0.2755
O  0.6941    2.0768    -0.1603
C  8.9028    0.4403    0.3382
H  9.1431    -0.2958    1.1139
H  9.3691    1.3852    0.6359
C  9.4348    0.0135    -1.0169
H  9.1874    0.7594    -1.7794
H  8.9828    -0.9307    -1.3368
H  10.5207    -0.1123    -0.9852
C  -9.5965    -0.0073    -0.5349
C  -6.1152    -0.7022    -1.8003
H  -5.6343    -0.8824    -2.7608
C  -7.4947    -0.4761    -1.7570
H  -8.0684    -0.4835    -2.6825
C  -8.1318    -0.2420    -0.5324
C  -7.3790    -0.2356    0.6486
H  -7.8565    -0.0553    1.6094
C  -5.9981    -0.4620    0.6054
H  -5.4372    -0.4518    1.5371
C  -5.3585    -0.6966    -0.6201
O  -3.3182    -1.1516    -1.7791
C  -3.8940    -0.9424    -0.7238
O  -3.3109    -0.8932    0.4996
O  -10.0918    0.2068    0.6965
O  -10.3150    0.0005    -1.5167
C  -1.8952    -1.1285    0.5133
H  -1.6222    -1.9592    -0.1498
H  -1.6305    -1.4590    1.5243
C  -1.1179    0.1374    0.1706
H  -1.3529    0.4681    -0.8476
H  -1.4003    0.9382    0.8651
H  -11.0504    0.3448    0.5432


